 N  C  H 
 1.0000000000000000
    13.7934373333876152    0.0000089501437317    0.0000048706292199
    -0.0000087523463532   13.4886017339244280    0.0000034254151274
    -0.0000065613662754   -0.0000047187676386   18.5815492596019922
 N   C   H  
 128  64 128
Selective dynamics
Cartesian
  1.0159238451476531  1.1499131169276020  0.9917355139169092   T   T   T
  7.9126425118414607  1.1499175919994662  0.9917379492315187   T   T   T
  1.0159194689744784  7.8942139838898040  0.9917372266244727   T   T   T
  7.9126381356682849  7.8942184589616726  0.9917396619390835   T   T   T
  1.0159205644645157  1.1499107575437821 10.2825101437179036   T   T   T
  7.9126392311583249  1.1499152326156474 10.2825125790325185   T   T   T
  1.0159161882913392  7.8942116245059850 10.2825118564254687   T   T   T
  7.9126348549851500  7.8942160995778474 10.2825142917400818   T   T   T
  5.8807819840438746  5.5944177501991756  8.2990547998544262   T   T   T
 12.7775006507377160  5.5944222252710407  8.2990572351690428   T   T   T
  5.8807776078706917 12.3387186171613781  8.2990565125619966   T   T   T
 12.7774962745645322 12.3387230922332520  8.2990589478765955   T   T   T
  5.8807787033607370  5.5944153908153549 17.5898294296553921   T   T   T
 12.7774973700545758  5.5944198658872200 17.5898318649700087   T   T   T
  5.8807743271875630 12.3387162577775626 17.5898311423629501   T   T   T
 12.7774929938814044 12.3387207328494259 17.5898335776775632   T   T   T
  2.4324235906558469  5.5944161886577328  5.6371244576787358   T   T   T
  9.3291422573496572  5.5944206637296006  5.6371268929933507   T   T   T
  2.4324192144826711 12.3387170556199486  5.6371261703863054   T   T   T
  9.3291378811764840 12.3387215306918012  5.6371286057009158   T   T   T
  2.4324203099727106  5.5944138292739183 14.9278990874797497   T   T   T
  9.3291389766665169  5.5944183043457789 14.9279015227943610   T   T   T
  2.4324159337995339 12.3387146962361314 14.9279008001873112   T   T   T
  9.3291346004933313 12.3387191713079947 14.9279032355019172   T   T   T
  4.4642822385356808  1.1499146784690379  3.6536658560926010   T   T   T
 11.3610009052294743  1.1499191535409055  3.6536682914072136   T   T   T
  4.4642778623625095  7.8942155454312353  3.6536675688001634   T   T   T
 11.3609965290562975  7.8942200205031030  3.6536700041147738   T   T   T
  4.4642789578525424  1.1499123190852192 12.9444404858936046   T   T   T
 11.3609976245463287  1.1499167941570840 12.9444429212082177   T   T   T
  4.4642745816793727  7.8942131860474190 12.9444421986011751   T   T   T
 11.3609932483731537  7.8942176611192822 12.9444446339157846   T   T   T
  5.8807843202028556  4.5220660310768421  3.6536672126311389   T   T   T
 12.7775029868966801  4.5220705061487072  3.6536696479457493   T   T   T
  5.8807799440296753 11.2663668980390383  3.6536689253387014   T   T   T
 12.7774986107235122 11.2663713731109123  3.6536713606533122   T   T   T
  5.8807810395197162  4.5220636716930196 12.9444418424321590   T   T   T
 12.7774997062135363  4.5220681467648882 12.9444442777467685   T   T   T
  5.8807766633465457 11.2663645386552265 12.9444435551397135   T   T   T
 12.7774953300403684 11.2663690137270951 12.9444459904543265   T   T   T
  1.0159215089886715  2.2222648360499138  5.6371231011402054   T   T   T
  7.9126401756824905  2.2222693111217819  5.6371255364548229   T   T   T
  1.0159171328154937  8.9665657030120851  5.6371248138477741   T   T   T
  7.9126357995093066  8.9665701780839449  5.6371272491623863   T   T   T
  1.0159182283055321  2.2222624766660970 14.9278977309412006   T   T   T
  7.9126368949993484  2.2222669517379599 14.9279001662558102   T   T   T
  1.0159138521323554  8.9665633436282661 14.9278994436487675   T   T   T
  7.9126325188261681  8.9665678187001383 14.9279018789633771   T   T   T
  4.4642799023766955  2.2222663975913521  8.2990534433158860   T   T   T
 11.3609985690704924  2.2222708726632172  8.2990558786305026   T   T   T
  4.4642755262035170  8.9665672645535395  8.2990551560234547   T   T   T
 11.3609941928973086  8.9665717396254045  8.2990575913380713   T   T   T
  4.4642766216935623  2.2222640382075358 17.5898280731168519   T   T   T
 11.3609952883873628  2.2222685132793996 17.5898305084314650   T   T   T
  4.4642722455203865  8.9665649051697152 17.5898297858244312   T   T   T
 11.3609909122141861  8.9665693802415838 17.5898322211390195   T   T   T
  2.4324259268148318  4.5220644695354100  0.9917368704554469   T   T   T
  9.3291445935086301  4.5220689446072786  0.9917393057700568   T   T   T
  2.4324215506416542 11.2663653364975964  0.9917385831630110   T   T   T
  9.3291402173354623 11.2663698115694633  0.9917410184776206   T   T   T
  2.4324226461316889  4.5220621101515963 10.2825115002564349   T   T   T
  9.3291413128254845  4.5220665852234632 10.2825139355710480   T   T   T
  2.4324182699585117 11.2663629771137686 10.2825132129640036   T   T   T
  9.3291369366523185 11.2663674521856336 10.2825156482786131   T   T   T
  1.0090007497730642  0.0441752779485767  3.2184051855753251   T   T   T
  7.9057194164668836  0.0441797530204426  3.2184076208899346   T   T   T
  1.0089963735998890  6.7884761449107769  3.2184068982828880   T   T   T
  7.9057150402937051  6.7884806199826366  3.2184093335974984   T   T   T
  1.0089974690899284  0.0441729185647574 12.5091798153763190   T   T   T
  7.9057161357837398  0.0441773936366232 12.5091822506909320   T   T   T
  1.0089930929167510  6.7884737855269508 12.5091815280838787   T   T   T
  7.9057117596105648  6.7884782605988221 12.5091839633985007   T   T   T
  5.8877050794184651  6.7001555891781877  6.0723851281960304   T   T   T
 12.7844237461122905  6.7001600642500589  6.0723875635106417   T   T   T
  5.8877007032452831 13.4444564561403848  6.0723868409035946   T   T   T
 12.7844193699391031 13.4444609312122481  6.0723892762182059   T   T   T
  5.8877017987353293  6.7001532297943660 15.3631597579970283   T   T   T
 12.7844204654291733  6.7001577048662382 15.3631621933116467   T   T   T
  5.8876974225621508 13.4444540967565764 15.3631614707045987   T   T   T
 12.7844160892559842 13.4444585718284308 15.3631639060192100   T   T   T
  2.4393451135031006  6.7001528967151076  7.8637946958278260   T   T   T
  9.3360637801968931  6.7001573717869753  7.8637971311424364   T   T   T
  2.4393407373299225 13.4444537636773127  7.8637964085353911   T   T   T
  9.3360594040237146 13.4444582387491760  7.8637988438500006   T   T   T
  2.4393418328199603  6.7001505373312940 17.1545693256287564   T   T   T
  9.3360604995137386  6.7001550124031590 17.1545717609433659   T   T   T
  2.4393374566467840 13.4444514042934813 17.1545710383363286   T   T   T
  9.3360561233405797 13.4444558793653481 17.1545734736509239   T   T   T
  4.4573607156884396  0.0441779704116594  1.4269956179435217   T   T   T
 11.3540793823822384  0.0441824454835253  1.4269980532581323   T   T   T
  4.4573563395152558  6.7884788373738552  1.4269973306510859   T   T   T
 11.3540750062090687  6.7884833124457229  1.4269997659656957   T   T   T
  4.4573574350053056  0.0441756110278401 10.7177702477445358   T   T   T
 11.3540761016991034  0.0441800860997061 10.7177726830591435   T   T   T
  4.4573530588321200  6.7884764779900308 10.7177719604521027   T   T   T
 11.3540717255259231  6.7884809530619048 10.7177743957667140   T   T   T
  5.8877088505365007  3.4163293320037571  1.4269969793712700   T   T   T
 12.7844275172303146  3.4163338070756231  1.4269994146858811   T   T   T
  5.8877044743633196 10.1606301989659489  1.4269986920788333   T   T   T
 12.7844231410571485 10.1606346740378104  1.4270011273934435   T   T   T
  5.8877055698533605  3.4163269726199399 10.7177716091722761   T   T   T
 12.7844242365471921  3.4163314476918032 10.7177740444868927   T   T   T
  5.8877011936801829 10.1606278395821246 10.7177733218798359   T   T   T
 12.7844198603740029 10.1606323146539825 10.7177757571944543   T   T   T
  1.0089969786550317  3.3280015351230241  7.8637933344000723   T   T   T
  7.9057156453488497  3.3280060101948918  7.8637957697146863   T   T   T
  1.0089926024818550 10.0723024020852066  7.8637950471076410   T   T   T
  7.9057112691756588 10.0723068771570716  7.8637974824222487   T   T   T
  1.0089936979718948  3.3279991757392042 17.1545679642010320   T   T   T
  7.9057123646657104  3.3280036508110729 17.1545703995156416   T   T   T
  1.0089893217987187 10.0723000427013663 17.1545696769085758   T   T   T
  7.9057079884925354 10.0723045177732384 17.1545721122232067   T   T   T
  4.4573569445704004  3.3280042275861055  6.0723837667682838   T   T   T
 11.3540756112642125  3.3280087026579719  6.0723862020828898   T   T   T
  4.4573525683972219 10.0723050945482964  6.0723854794758454   T   T   T
 11.3540712350910322 10.0723095696201543  6.0723879147904611   T   T   T
  4.4573536638872673  3.3280018682022861 15.3631583965692808   T   T   T
 11.3540723305810722  3.3280063432741525 15.3631608318838921   T   T   T
  4.4573492877140870 10.0723027351644685 15.3631601092768406   T   T   T
 11.3540679544078955 10.0723072102363407 15.3631625445914537   T   T   T
  2.4393488846211300  3.4163266395406748  3.2184065470030703   T   T   T
  9.3360675513149225  3.4163311146125412  3.2184089823176829   T   T   T
  2.4393445084479515 10.1606275065028573  3.2184082597106354   T   T   T
  9.3360631751417475 10.1606319815747153  3.2184106950252453   T   T   T
  2.4393456039379906  3.4163242801568567 12.5091811768040717   T   T   T
  9.3360642706317858  3.4163287552287214 12.5091836121186812   T   T   T
  2.4393412277648125 10.1606251471190419 12.5091828895116386   T   T   T
  9.3360598944586002 10.1606296221909105 12.5091853248262517   T   T   T
  0.9998500900436500  0.5449588028941534  2.1609930529774131   T   T   T
  7.8965687567374552  0.5449632779660198  2.1609954882920230   T   T   T
  0.9998457138704731  7.2892596698563645  2.1609947656849764   T   T   T
  7.8965643805642785  7.2892641449282269  2.1609972009995868   T   T   T
  0.9998468093605112  0.5449564435103333 11.4517676827784083   T   T   T
  7.8965654760543273  0.5449609185821990 11.4517701180930178   T   T   T
  0.9998424331873349  7.2892573104725473 11.4517693954859698   T   T   T
  7.8965610998811391  7.2892617855444044 11.4517718308005918   T   T   T
  5.8968557391478873  6.1993720642326213  7.1297972607939322   T   T   T
 12.7935744058417082  6.1993765393044828  7.1297996961085444   T   T   T
  5.8968513629747052 12.9436729311948362  7.1297989735014990   T   T   T
 12.7935700296685422 12.9436774062666800  7.1298014088161041   T   T   T
  5.8968524584647461  6.1993697048488015 16.4205718905948750   T   T   T
 12.7935711251585680  6.1993741799206665 16.4205743259094916   T   T   T
  5.8968480822915659 12.9436705718109994 16.4205736033024401   T   T   T
 12.7935667489853930 12.9436750468828734 16.4205760386170354   T   T   T
  2.4484965200022279  6.1993699088273164  6.8063823153456875   T   T   T
  9.3452151866960307  6.1993743838991850  6.8063847506602926   T   T   T
  2.4484921438290494 12.9436707757894958  6.8063840280532490   T   T   T
  9.3452108105228557 12.9436752508613662  6.8063864633678586   T   T   T
  2.4484932393190877  6.1993675494434966 16.0971569451466614   T   T   T
  9.3452119060129011  6.1993720245153643 16.0971593804612709   T   T   T
  2.4484888631459141 12.9436684164056928 16.0971586578542336   T   T   T
  9.3452075298397226 12.9436728914775614 16.0971610931688396   T   T   T
  4.4482093091893082  0.5449609582994617  2.4844079984256546   T   T   T
 11.3449279758830972  0.5449654333713282  2.4844104337402673   T   T   T
  4.4482049330161200  7.2892618252616659  2.4844097111332184   T   T   T
 11.3449235997099258  7.2892663003335363  2.4844121464478284   T   T   T
  4.4482060285061671  0.5449585989156424 11.7751826282266379   T   T   T
 11.3449246951999516  0.5449630739875090 11.7751850635412492   T   T   T
  4.4482016523329841  7.2892594658778478 11.7751843409342083   T   T   T
 11.3449203190267891  7.2892639409497226 11.7751867762488089   T   T   T
  5.8968588603796404  3.9171123317668006  2.4844093663158517   T   T   T
 12.7935775270734666  3.9171168068386657  2.4844118016304622   T   T   T
  5.8968544842064654 10.6614131987289991  2.4844110790234173   T   T   T
 12.7935731509002917 10.6614176738008570  2.4844135143380264   T   T   T
  5.8968555796965072  3.9171099723829808 11.7751839961168354   T   T   T
 12.7935742463903299  3.9171144474548454 11.7751864314314538   T   T   T
  5.8968512035233234 10.6614108393451730 11.7751857088244023   T   T   T
 12.7935698702171425 10.6614153144170292 11.7751881441390083   T   T   T
  0.9998469688118892  2.8272185353599775  6.8063809474554908   T   T   T
  7.8965656355057003  2.8272230104318421  6.8063833827700959   T   T   T
  0.9998425926387122  9.5715194023221404  6.8063826601630515   T   T   T
  7.8965612593325165  9.5715238773939983  6.8063850954776575   T   T   T
  0.9998436881287510  2.8272161759761629 16.0971555772564621   T   T   T
  7.8965623548225601  2.8272206510480258 16.0971580125710716   T   T   T
  0.9998393119555741  9.5715170429383303 16.0971572899640130   T   T   T
  7.8965579786493798  9.5715215180101936 16.0971597252786474   T   T   T
  4.4482061879575525  2.8272206907652873  7.1297958929037382   T   T   T
 11.3449248546513548  2.8272251658371532  7.1297983282183486   T   T   T
  4.4482018117843669  9.5715215577274559  7.1297976056113042   T   T   T
 11.3449204784781674  9.5715260327993246  7.1298000409259128   T   T   T
  4.4482029072744131  2.8272183313814692 16.4205705227046721   T   T   T
 11.3449215739681950  2.8272228064533329 16.4205729580192745   T   T   T
  4.4481985311012311  9.5715191983436281 16.4205722354122194   T   T   T
 11.3449171977950289  9.5715236734154985 16.4205746707268467   T   T   T
  2.4484996412339868  3.9171101763614922  2.1609944208676080   T   T   T
  9.3452183079277891  3.9171146514333590  2.1609968561822179   T   T   T
  2.4484952650608096 10.6614110433236693  2.1609961335751739   T   T   T
  9.3452139317546106 10.6614155183955273  2.1609985688897830   T   T   T
  2.4484963605508492  3.9171078169776732 11.4517690506686023   T   T   T
  9.3452150272446559  3.9171122920495400 11.4517714859832136   T   T   T
  2.4484919843776720 10.6614086839398521 11.4517707633761692   T   T   T
  9.3452106510714721 10.6614131590117314 11.4517731986907805   T   T   T
  1.4359625956789466  0.6861696281678513  0.1823226886840810   T   T   T
  8.3326812623727022  0.6861741032397168  0.1823251239986909   T   T   T
  1.4359582195057701  7.4304704951300407  0.1823244013916446   T   T   T
  8.3326768861995433  7.4304749702019093  0.1823268367062546   T   T   T
  1.4359593149958085  0.6861672687840332  9.4730973184850633   T   T   T
  8.3326779816895744  0.6861717438558977  9.4730997537996764   T   T   T
  1.4359549388226309  7.4304681357462279  9.4730990311926284   T   T   T
  8.3326736055164154  7.4304726108180903  9.4731014665072362   T   T   T
  5.4607432335125923  6.0581612389589310  9.1084676250872487   T   T   T
 12.3574619002064132  6.0581657140307970  9.1084700604018565   T   T   T
  5.4607388573394067 12.8024621059211068  9.1084693377948138   T   T   T
 12.3574575240332365 12.8024665809929861  9.1084717731094162   T   T   T
  5.4607399528294494  6.0581588795751165 18.3992422548882253   T   T   T
 12.3574586195232659  6.0581633546469833 18.3992446902028206   T   T   T
  5.4607355766562717 12.8024597465373056 18.3992439675957762   T   T   T
 12.3574542433501033 12.8024642216091795 18.3992464029103928   T   T   T
  2.0123854117511857  6.0581600885168152  4.8277115713393277   T   T   T
  8.9091040784449618  6.0581645635886803  4.8277140066539372   T   T   T
  2.0123810355780103 12.8024609554790239  4.8277132840468937   T   T   T
  8.9090997022717815 12.8024654305508889  4.8277157193615023   T   T   T
  2.0123821310680516  6.0581577291329953 14.1184862011403567   T   T   T
  8.9091007977618180  6.0581622042048595 14.1184886364549556   T   T   T
  2.0123777548948771 12.8024585960951942 14.1184879138479182   T   T   T
  8.9090964215886537 12.8024630711670664 14.1184903491625242   T   T   T
  4.8843204174403461  0.6861707786099623  4.4630787424320024   T   T   T
 11.7810390841341448  0.6861752536818276  4.4630811777466128   T   T   T
  4.8843160412671640  7.4304716455721662  4.4630804551395666   T   T   T
 11.7810347079609823  7.4304761206440331  4.4630828904541726   T   T   T
  4.8843171367572005  0.6861684192261432 13.7538533722329959   T   T   T
 11.7810358034510188  0.6861728942980082 13.7538558075476107   T   T   T
  4.8843127605840291  7.4304692861883419 13.7538550849405574   T   T   T
 11.7810314272778456  7.4304737612602132 13.7538575202551741   T   T   T
  5.4607461714904879  4.0583215861176818  4.4630798023294460   T   T   T
 12.3574648381842955  4.0583260611895531  4.4630822376440502   T   T   T
  5.4607417953173139 10.8026224530798700  4.4630815150370022   T   T   T
 12.3574604620111312 10.8026269281517422  4.4630839503516171   T   T   T
  5.4607428908073468  4.0583192267338539 13.7538544321304457   T   T   T
 12.3574615575011713  4.0583237018057243 13.7538568674450588   T   T   T
  5.4607385146341656 10.8026200936960564 13.7538561448380090   T   T   T
 12.3574571813279999 10.8026245687679161 13.7538585801526185   T   T   T
  1.4359596577010503  2.6860092810090852  4.8277105114418868   T   T   T
  8.3326783243948199  2.6860137560809503  4.8277129467564999   T   T   T
  1.4359552815278718  9.4303101479712659  4.8277122241494519   T   T   T
  8.3326739482216521  9.4303146230431292  4.8277146594640623   T   T   T
  1.4359563770179125  2.6860069216252662 14.1184851412429069   T   T   T
  8.3326750437116797  2.6860113966971335 14.1184875765575075   T   T   T
  1.4359520008447351  9.4303077885874362 14.1184868539504702   T   T   T
  8.3326706675385260  9.4303122636593137 14.1184892892650780   T   T   T
  4.8843174794624495  2.6860104314511966  9.1084665651898025   T   T   T
 11.7810361461562412  2.6860149065230590  9.1084690005044155   T   T   T
  4.8843131032892790  9.4303112984133612  9.1084682778973640   T   T   T
 11.7810317699830662  9.4303157734852281  9.1084707132119718   T   T   T
  4.8843141987793040  2.6860080720673780 18.3992411949907861   T   T   T
 11.7810328654730956  2.6860125471392422 18.3992436303053672   T   T   T
  4.8843098226061334  9.4303089390295494 18.3992429076983299   T   T   T
 11.7810284892999295  9.4303134141014180 18.3992453430129430   T   T   T
  2.0123883497290831  4.0583204356755740  0.1823237485815272   T   T   T
  8.9091070164228512  4.0583249107474320  0.1823261838961372   T   T   T
  2.0123839735559117 10.8026213026377675  0.1823254612890911   T   T   T
  8.9091026402496887 10.8026257777096344  0.1823278966037008   T   T   T
  2.0123850690459490  4.0583180762917479  9.4730983783825078   T   T   T
  8.9091037357397269  4.0583225513636174  9.4731008136971031   T   T   T
  2.0123806928727737 10.8026189432539343  9.4731000910900676   T   T   T
  8.9090993595665520 10.8026234183257976  9.4731025264046718   T   T   T
  0.3413147059543103  1.9009184850692438  0.8391694386581994   T   T   T
  7.2380333726481059  1.9009229601411102  0.8391718739728095   T   T   T
  0.3413103297811338  8.6452193520314164  0.8391711513657633   T   T   T
  7.2380289964749291  8.6452238271032815  0.8391735866803737   T   T   T
  0.3413114252711731  1.9009161256854241 10.1299440684591886   T   T   T
  7.2380300919649638  1.9009206007572912 10.1299465037737964   T   T   T
  0.3413070490979960  8.6452169926475939 10.1299457811667484   T   T   T
  7.2380257157917871  8.6452214677194483 10.1299482164813632   T   T   T
  6.5553911232372624  4.8434123820575170  8.4516208751131447   T   T   T
 13.4521097899310256  4.8434168571293874  8.4516233104277383   T   T   T
  6.5553867470640776 11.5877132490197265  8.4516225878206992   T   T   T
 13.4521054137578435 11.5877177240915845  8.4516250231353105   T   T   T
  6.5553878425541177  4.8434100226736980 17.7423955049141249   T   T   T
 13.4521065092478906  4.8434144977455631 17.7423979402287131   T   T   T
  6.5553834663809347 11.5877108896358845 17.7423972176216722   T   T   T
 13.4521021330746944 11.5877153647077584 17.7423996529362853   T   T   T
  3.1070328375949661  4.8434108980040902  5.4845584774108689   T   T   T
 10.0037515042887364  4.8434153730759570  5.4845609127254766   T   T   T
  3.1070284614217885 11.5877117649662793  5.4845601901184322   T   T   T
 10.0037471281155579 11.5877162400381497  5.4845626254330417   T   T   T
  3.1070295569118280  4.8434085386202712 14.7753331072118588   T   T   T
 10.0037482236055979  4.8434130136921407 14.7753355425264736   T   T   T
  3.1070251807386531 11.5877094055824514 14.7753348199194185   T   T   T
 10.0037438474324194 11.5877138806543272 14.7753372552340334   T   T   T
  3.7896729915965843  1.9009199691226721  3.8062318363604808   T   T   T
 10.6863916582903933  1.9009244441945388  3.8062342716750885   T   T   T
  3.7896686154234058  8.6452208360848548  3.8062335490680450   T   T   T
 10.6863872821171988  8.6452253111567128  3.8062359843826536   T   T   T
  3.7896697109134445  1.9009176097388532 13.0970064661615044   T   T   T
 10.6863883776072370  1.9009220848107196 13.0970089014761211   T   T   T
  3.7896653347402660  8.6452184767010216 13.0970081788690695   T   T   T
 10.6863840014340674  8.6452229517728902 13.0970106141836862   T   T   T
  6.5553924847862923  5.2730721971968029  3.8062336693239724   T   T   T
 13.4521111514800680  5.2730766722686679  3.8062361046385833   T   T   T
  6.5553881086131289 12.0173730641590151  3.8062353820315367   T   T   T
 13.4521067753068966 12.0173775392308801  3.8062378173461466   T   T   T
  6.5553892041031663  5.2730698378129857 13.0970082991249921   T   T   T
 13.4521078707969366  5.2730743128848570 13.0970107344396123   T   T   T
  6.5553848279299931 12.0173707047751872 13.0970100118325625   T   T   T
 13.4521034946237563 12.0173751798470594 13.0970124471471685   T   T   T
  0.3413133444052557  1.4712586699299779  5.4845566444473777   T   T   T
  7.2380320110990475  1.4712631450018421  5.4845590797619899   T   T   T
  0.3413089682320791  8.2155595368921315  5.4845583571549392   T   T   T
  7.2380276349258690  8.2155640119639948  5.4845607924695496   T   T   T
  0.3413100637221175  1.4712563105461582 14.7753312742483587   T   T   T
  7.2380287304159205  1.4712607856180229 14.7753337095629789   T   T   T
  0.3413056875489412  8.2155571775083072 14.7753329869559291   T   T   T
  7.2380243542427394  8.2155616525801758 14.7753354222705369   T   T   T
  3.7896716300475277  1.4712601539834056  8.4516190421496553   T   T   T
 10.6863902967413296  1.4712646290552709  8.4516214774642666   T   T   T
  3.7896672538743554  8.2155610209455556  8.4516207548572115   T   T   T
 10.6863859205681493  8.2155654960174243  8.4516231901718246   T   T   T
  3.7896683493643901  1.4712577945995862 17.7423936719506123   T   T   T
 10.6863870160581982  1.4712622696714517 17.7423961072652254   T   T   T
  3.7896639731912112  8.2155586615617313 17.7423953846581917   T   T   T
 10.6863826398850232  8.2155631366335999 17.7423978199727905   T   T   T
  3.1070341991440227  5.2730707131433814  0.8391712716216914   T   T   T
 10.0037528658377841  5.2730751882152482  0.8391737069363017   T   T   T
  3.1070298229708491 12.0173715801055838  0.8391729843292552   T   T   T
 10.0037484896646109 12.0173760551774578  0.8391754196438653   T   T   T
  3.1070309184608838  5.2730683537595553 10.1299459014226745   T   T   T
 10.0037495851546510  5.2730728288314266 10.1299483367372947   T   T   T
  3.1070265422877075 12.0173692207217702 10.1299476141302431   T   T   T
 10.0037452089814725 12.0173736957936228 10.1299500494448580   T   T   T
