C H O
        1.0000000000
  19.882105724059777   0.000011572948166   0.132366436201430
   0.000010901096825  18.606222070636054  -0.000018396035383
  -3.368409497716043  -0.000022808885109  20.525304222865941
C H O
  324  432  108
 Direct
   0.142649706355802   0.056435099585350   0.148385822817936
   0.475983039689135   0.056435099585350   0.148385822817936
   0.809316373022469   0.056435099585350   0.148385822817936
   0.142649706355802   0.389768432918684   0.148385822817936
   0.475983039689135   0.389768432918684   0.148385822817936
   0.809316373022469   0.389768432918684   0.148385822817936
   0.142649706355802   0.723101766252017   0.148385822817936
   0.475983039689135   0.723101766252017   0.148385822817936
   0.809316373022469   0.723101766252017   0.148385822817936
   0.142649706355802   0.056435099585350   0.481719156151269
   0.475983039689135   0.056435099585350   0.481719156151269
   0.809316373022469   0.056435099585350   0.481719156151269
   0.142649706355802   0.389768432918684   0.481719156151269
   0.475983039689135   0.389768432918684   0.481719156151269
   0.809316373022469   0.389768432918684   0.481719156151269
   0.142649706355802   0.723101766252017   0.481719156151269
   0.475983039689135   0.723101766252017   0.481719156151269
   0.809316373022469   0.723101766252017   0.481719156151269
   0.142649706355802   0.056435099585350   0.815052489484602
   0.475983039689135   0.056435099585350   0.815052489484602
   0.809316373022469   0.056435099585350   0.815052489484602
   0.142649706355802   0.389768432918684   0.815052489484602
   0.475983039689135   0.389768432918684   0.815052489484602
   0.809316373022469   0.389768432918684   0.815052489484602
   0.142649706355802   0.723101766252017   0.815052489484602
   0.475983039689135   0.723101766252017   0.815052489484602
   0.809316373022469   0.723101766252017   0.815052489484602
   0.190683179703517   0.223101654415965   0.184946629992488
   0.524016513036850   0.223101654415965   0.184946629992488
   0.857349846370184   0.223101654415965   0.184946629992488
   0.190683179703517   0.556434987749299   0.184946629992488
   0.524016513036850   0.556434987749299   0.184946629992488
   0.857349846370184   0.556434987749299   0.184946629992488
   0.190683179703517   0.889768321082632   0.184946629992488
   0.524016513036850   0.889768321082632   0.184946629992488
   0.857349846370184   0.889768321082632   0.184946629992488
   0.190683179703517   0.223101654415965   0.518279963325822
   0.524016513036850   0.223101654415965   0.518279963325822
   0.857349846370184   0.223101654415965   0.518279963325822
   0.190683179703517   0.556434987749299   0.518279963325822
   0.524016513036850   0.556434987749299   0.518279963325822
   0.857349846370184   0.556434987749299   0.518279963325822
   0.190683179703517   0.889768321082632   0.518279963325822
   0.524016513036850   0.889768321082632   0.518279963325822
   0.857349846370184   0.889768321082632   0.518279963325822
   0.190683179703517   0.223101654415965   0.851613296659155
   0.524016513036850   0.223101654415965   0.851613296659155
   0.857349846370184   0.223101654415965   0.851613296659155
   0.190683179703517   0.556434987749299   0.851613296659155
   0.524016513036850   0.556434987749299   0.851613296659155
   0.857349846370184   0.556434987749299   0.851613296659155
   0.190683179703517   0.889768321082632   0.851613296659155
   0.524016513036850   0.889768321082632   0.851613296659155
   0.857349846370184   0.889768321082632   0.851613296659155
   0.172789284211746   0.057099722065746   0.085275001793377
   0.506122617545079   0.057099722065746   0.085275001793377
   0.839455950878412   0.057099722065746   0.085275001793377
   0.172789284211746   0.390433055399079   0.085275001793377
   0.506122617545079   0.390433055399079   0.085275001793377
   0.839455950878412   0.390433055399079   0.085275001793377
   0.172789284211746   0.723766388732412   0.085275001793377
   0.506122617545079   0.723766388732412   0.085275001793377
   0.839455950878412   0.723766388732412   0.085275001793377
   0.172789284211746   0.057099722065746   0.418608335126711
   0.506122617545079   0.057099722065746   0.418608335126711
   0.839455950878412   0.057099722065746   0.418608335126711
   0.172789284211746   0.390433055399079   0.418608335126711
   0.506122617545079   0.390433055399079   0.418608335126711
   0.839455950878412   0.390433055399079   0.418608335126711
   0.172789284211746   0.723766388732412   0.418608335126711
   0.506122617545079   0.723766388732412   0.418608335126711
   0.839455950878412   0.723766388732412   0.418608335126711
   0.172789284211746   0.057099722065746   0.751941668460044
   0.506122617545079   0.057099722065746   0.751941668460044
   0.839455950878412   0.057099722065746   0.751941668460044
   0.172789284211746   0.390433055399079   0.751941668460044
   0.506122617545079   0.390433055399079   0.751941668460044
   0.839455950878412   0.390433055399079   0.751941668460044
   0.172789284211746   0.723766388732412   0.751941668460044
   0.506122617545079   0.723766388732412   0.751941668460044
   0.839455950878412   0.723766388732412   0.751941668460044
   0.160543533443497   0.223766307895616   0.248057335147699
   0.493876866776830   0.223766307895616   0.248057335147699
   0.827210200110163   0.223766307895616   0.248057335147699
   0.160543533443497   0.557099641228949   0.248057335147699
   0.493876866776830   0.557099641228949   0.248057335147699
   0.827210200110163   0.557099641228949   0.248057335147699
   0.160543533443497   0.890432974562283   0.248057335147699
   0.493876866776830   0.890432974562283   0.248057335147699
   0.827210200110163   0.890432974562283   0.248057335147699
   0.160543533443497   0.223766307895616   0.581390668481032
   0.493876866776830   0.223766307895616   0.581390668481032
   0.827210200110163   0.223766307895616   0.581390668481032
   0.160543533443497   0.557099641228949   0.581390668481032
   0.493876866776830   0.557099641228949   0.581390668481032
   0.827210200110163   0.557099641228949   0.581390668481032
   0.160543533443497   0.890432974562283   0.581390668481032
   0.493876866776830   0.890432974562283   0.581390668481032
   0.827210200110163   0.890432974562283   0.581390668481032
   0.160543533443497   0.223766307895616   0.914724001814366
   0.493876866776830   0.223766307895616   0.914724001814366
   0.827210200110163   0.223766307895616   0.914724001814366
   0.160543533443497   0.557099641228949   0.914724001814366
   0.493876866776830   0.557099641228949   0.914724001814366
   0.827210200110163   0.557099641228949   0.914724001814366
   0.160543533443497   0.890432974562283   0.914724001814366
   0.493876866776830   0.890432974562283   0.914724001814366
   0.827210200110163   0.890432974562283   0.914724001814366
   0.119913774793578   0.071928023095232   0.023984498602372
   0.453247108126912   0.071928023095232   0.023984498602372
   0.786580441460245   0.071928023095232   0.023984498602372
   0.119913774793578   0.405261356428565   0.023984498602372
   0.453247108126912   0.405261356428565   0.023984498602372
   0.786580441460245   0.405261356428565   0.023984498602372
   0.119913774793578   0.738594689761899   0.023984498602372
   0.453247108126912   0.738594689761899   0.023984498602372
   0.786580441460245   0.738594689761899   0.023984498602372
   0.119913774793578   0.071928023095232   0.357317831935705
   0.453247108126912   0.071928023095232   0.357317831935705
   0.786580441460245   0.071928023095232   0.357317831935705
   0.119913774793578   0.405261356428565   0.357317831935705
   0.453247108126912   0.405261356428565   0.357317831935705
   0.786580441460245   0.405261356428565   0.357317831935705
   0.119913774793578   0.738594689761899   0.357317831935705
   0.453247108126912   0.738594689761899   0.357317831935705
   0.786580441460245   0.738594689761899   0.357317831935705
   0.119913774793578   0.071928023095232   0.690651165269038
   0.453247108126912   0.071928023095232   0.690651165269038
   0.786580441460245   0.071928023095232   0.690651165269038
   0.119913774793578   0.405261356428565   0.690651165269038
   0.453247108126912   0.405261356428565   0.690651165269038
   0.786580441460245   0.405261356428565   0.690651165269038
   0.119913774793578   0.738594689761899   0.690651165269038
   0.453247108126912   0.738594689761899   0.690651165269038
   0.786580441460245   0.738594689761899   0.690651165269038
   0.213418833760554   0.238594761157595   0.309348134916661
   0.546752167093887   0.238594761157595   0.309348134916661
   0.880085500427221   0.238594761157595   0.309348134916661
   0.213418833760554   0.571928094490929   0.309348134916661
   0.546752167093887   0.571928094490929   0.309348134916661
   0.880085500427221   0.571928094490929   0.309348134916661
   0.213418833760554   0.905261427824262   0.309348134916661
   0.546752167093887   0.905261427824262   0.309348134916661
   0.880085500427221   0.905261427824262   0.309348134916661
   0.213418833760554   0.238594761157595   0.642681468249994
   0.546752167093887   0.238594761157595   0.642681468249994
   0.880085500427221   0.238594761157595   0.642681468249994
   0.213418833760554   0.571928094490929   0.642681468249994
   0.546752167093887   0.571928094490929   0.642681468249994
   0.880085500427221   0.571928094490929   0.642681468249994
   0.213418833760554   0.905261427824262   0.642681468249994
   0.546752167093887   0.905261427824262   0.642681468249994
   0.880085500427221   0.905261427824262   0.642681468249994
   0.213418833760554   0.238594761157595   0.976014801583328
   0.546752167093887   0.238594761157595   0.976014801583328
   0.880085500427221   0.238594761157595   0.976014801583328
   0.213418833760554   0.571928094490929   0.976014801583328
   0.546752167093887   0.571928094490929   0.976014801583328
   0.880085500427221   0.571928094490929   0.976014801583328
   0.213418833760554   0.905261427824262   0.976014801583328
   0.546752167093887   0.905261427824262   0.976014801583328
   0.880085500427221   0.905261427824262   0.976014801583328
   0.057804406298004   0.023309088576876   0.020282312689121
   0.391137739631337   0.023309088576876   0.020282312689121
   0.724471072964671   0.023309088576876   0.020282312689121
   0.057804406298004   0.356642421910209   0.020282312689121
   0.391137739631337   0.356642421910209   0.020282312689121
   0.724471072964671   0.356642421910209   0.020282312689121
   0.057804406298004   0.689975755243542   0.020282312689121
   0.391137739631337   0.689975755243542   0.020282312689121
   0.724471072964671   0.689975755243542   0.020282312689121
   0.057804406298004   0.023309088576876   0.353615646022455
   0.391137739631337   0.023309088576876   0.353615646022455
   0.724471072964671   0.023309088576876   0.353615646022455
   0.057804406298004   0.356642421910209   0.353615646022455
   0.391137739631337   0.356642421910209   0.353615646022455
   0.724471072964671   0.356642421910209   0.353615646022455
   0.057804406298004   0.689975755243542   0.353615646022455
   0.391137739631337   0.689975755243542   0.353615646022455
   0.724471072964671   0.689975755243542   0.353615646022455
   0.057804406298004   0.023309088576876   0.686948979355788
   0.391137739631337   0.023309088576876   0.686948979355788
   0.724471072964671   0.023309088576876   0.686948979355788
   0.057804406298004   0.356642421910209   0.686948979355788
   0.391137739631337   0.356642421910209   0.686948979355788
   0.724471072964671   0.356642421910209   0.686948979355788
   0.057804406298004   0.689975755243542   0.686948979355788
   0.391137739631337   0.689975755243542   0.686948979355788
   0.724471072964671   0.689975755243542   0.686948979355788
   0.275528327232460   0.189975612334886   0.313050559923347
   0.608861660565793   0.189975612334886   0.313050559923347
   0.942194993899127   0.189975612334886   0.313050559923347
   0.275528327232460   0.523308945668219   0.313050559923347
   0.608861660565793   0.523308945668219   0.313050559923347
   0.942194993899127   0.523308945668219   0.313050559923347
   0.275528327232460   0.856642279001553   0.313050559923347
   0.608861660565793   0.856642279001553   0.313050559923347
   0.942194993899127   0.856642279001553   0.313050559923347
   0.275528327232460   0.189975612334886   0.646383893256681
   0.608861660565793   0.189975612334886   0.646383893256681
   0.942194993899127   0.189975612334886   0.646383893256681
   0.275528327232460   0.523308945668219   0.646383893256681
   0.608861660565793   0.523308945668219   0.646383893256681
   0.942194993899127   0.523308945668219   0.646383893256681
   0.275528327232460   0.856642279001553   0.646383893256681
   0.608861660565793   0.856642279001553   0.646383893256681
   0.942194993899127   0.856642279001553   0.646383893256681
   0.275528327232460   0.189975612334886   0.979717226590014
   0.608861660565793   0.189975612334886   0.979717226590014
   0.942194993899127   0.189975612334886   0.979717226590014
   0.275528327232460   0.523308945668219   0.979717226590014
   0.608861660565793   0.523308945668219   0.979717226590014
   0.942194993899127   0.523308945668219   0.979717226590014
   0.275528327232460   0.856642279001553   0.979717226590014
   0.608861660565793   0.856642279001553   0.979717226590014
   0.942194993899127   0.856642279001553   0.979717226590014
   0.032666094670887   0.007550789921822   0.084569785204740
   0.365999428004220   0.007550789921822   0.084569785204740
   0.699332761337554   0.007550789921822   0.084569785204740
   0.032666094670887   0.340884123255156   0.084569785204740
   0.365999428004220   0.340884123255156   0.084569785204740
   0.699332761337554   0.340884123255156   0.084569785204740
   0.032666094670887   0.674217456588489   0.084569785204740
   0.365999428004220   0.674217456588489   0.084569785204740
   0.699332761337554   0.674217456588489   0.084569785204740
   0.032666094670887   0.007550789921822   0.417903118538073
   0.365999428004220   0.007550789921822   0.417903118538073
   0.699332761337554   0.007550789921822   0.417903118538073
   0.032666094670887   0.340884123255156   0.417903118538073
   0.365999428004220   0.340884123255156   0.417903118538073
   0.699332761337554   0.340884123255156   0.417903118538073
   0.032666094670887   0.674217456588489   0.417903118538073
   0.365999428004220   0.674217456588489   0.417903118538073
   0.699332761337554   0.674217456588489   0.417903118538073
   0.032666094670887   0.007550789921822   0.751236451871407
   0.365999428004220   0.007550789921822   0.751236451871407
   0.699332761337554   0.007550789921822   0.751236451871407
   0.032666094670887   0.340884123255156   0.751236451871407
   0.365999428004220   0.340884123255156   0.751236451871407
   0.699332761337554   0.340884123255156   0.751236451871407
   0.032666094670887   0.674217456588489   0.751236451871407
   0.365999428004220   0.674217456588489   0.751236451871407
   0.699332761337554   0.674217456588489   0.751236451871407
   0.300666573807170   0.174216867369912   0.248762907988744
   0.633999907140504   0.174216867369912   0.248762907988744
   0.967333240473837   0.174216867369912   0.248762907988744
   0.300666573807170   0.507550200703245   0.248762907988744
   0.633999907140504   0.507550200703245   0.248762907988744
   0.967333240473837   0.507550200703245   0.248762907988744
   0.300666573807170   0.840883534036578   0.248762907988744
   0.633999907140504   0.840883534036578   0.248762907988744
   0.967333240473837   0.840883534036578   0.248762907988744
   0.300666573807170   0.174216867369912   0.582096241322077
   0.633999907140504   0.174216867369912   0.582096241322077
   0.967333240473837   0.174216867369912   0.582096241322077
   0.300666573807170   0.507550200703245   0.582096241322077
   0.633999907140504   0.507550200703245   0.582096241322077
   0.967333240473837   0.507550200703245   0.582096241322077
   0.300666573807170   0.840883534036578   0.582096241322077
   0.633999907140504   0.840883534036578   0.582096241322077
   0.967333240473837   0.840883534036578   0.582096241322077
   0.300666573807170   0.174216867369912   0.915429574655410
   0.633999907140504   0.174216867369912   0.915429574655410
   0.967333240473837   0.174216867369912   0.915429574655410
   0.300666573807170   0.507550200703245   0.915429574655410
   0.633999907140504   0.507550200703245   0.915429574655410
   0.967333240473837   0.507550200703245   0.915429574655410
   0.300666573807170   0.840883534036578   0.915429574655410
   0.633999907140504   0.840883534036578   0.915429574655410
   0.967333240473837   0.840883534036578   0.915429574655410
   0.065428958583745   0.055913346301068   0.141572625175089
   0.398762291917078   0.055913346301068   0.141572625175089
   0.732095625250411   0.055913346301068   0.141572625175089
   0.065428958583745   0.389246679634401   0.141572625175089
   0.398762291917078   0.389246679634401   0.141572625175089
   0.732095625250411   0.389246679634401   0.141572625175089
   0.065428958583745   0.722580012967735   0.141572625175089
   0.398762291917078   0.722580012967735   0.141572625175089
   0.732095625250411   0.722580012967735   0.141572625175089
   0.065428958583745   0.055913346301068   0.474905958508423
   0.398762291917078   0.055913346301068   0.474905958508423
   0.732095625250411   0.055913346301068   0.474905958508423
   0.065428958583745   0.389246679634401   0.474905958508423
   0.398762291917078   0.389246679634401   0.474905958508423
   0.732095625250411   0.389246679634401   0.474905958508423
   0.065428958583745   0.722580012967735   0.474905958508423
   0.398762291917078   0.722580012967735   0.474905958508423
   0.732095625250411   0.722580012967735   0.474905958508423
   0.065428958583745   0.055913346301068   0.808239291841756
   0.398762291917078   0.055913346301068   0.808239291841756
   0.732095625250411   0.055913346301068   0.808239291841756
   0.065428958583745   0.389246679634401   0.808239291841756
   0.398762291917078   0.389246679634401   0.808239291841756
   0.732095625250411   0.389246679634401   0.808239291841756
   0.065428958583745   0.722580012967735   0.808239291841756
   0.398762291917078   0.722580012967735   0.808239291841756
   0.732095625250411   0.722580012967735   0.808239291841756
   0.267903831294852   0.222579516335119   0.191760077820059
   0.601237164628185   0.222579516335119   0.191760077820059
   0.934570497961519   0.222579516335119   0.191760077820059
   0.267903831294852   0.555912849668452   0.191760077820059
   0.601237164628185   0.555912849668452   0.191760077820059
   0.934570497961519   0.555912849668452   0.191760077820059
   0.267903831294852   0.889246183001785   0.191760077820059
   0.601237164628185   0.889246183001785   0.191760077820059
   0.934570497961519   0.889246183001785   0.191760077820059
   0.267903831294852   0.222579516335119   0.525093411153392
   0.601237164628185   0.222579516335119   0.525093411153392
   0.934570497961519   0.222579516335119   0.525093411153392
   0.267903831294852   0.555912849668452   0.525093411153392
   0.601237164628185   0.555912849668452   0.525093411153392
   0.934570497961519   0.555912849668452   0.525093411153392
   0.267903831294852   0.889246183001785   0.525093411153392
   0.601237164628185   0.889246183001785   0.525093411153392
   0.934570497961519   0.889246183001785   0.525093411153392
   0.267903831294852   0.222579516335119   0.858426744486726
   0.601237164628185   0.222579516335119   0.858426744486726
   0.934570497961519   0.222579516335119   0.858426744486726
   0.267903831294852   0.555912849668452   0.858426744486726
   0.601237164628185   0.555912849668452   0.858426744486726
   0.934570497961519   0.555912849668452   0.858426744486726
   0.267903831294852   0.889246183001785   0.858426744486726
   0.601237164628185   0.889246183001785   0.858426744486726
   0.934570497961519   0.889246183001785   0.858426744486726
   0.214120677349004   0.096367610313022   0.089635218140555
   0.547454010682337   0.096367610313022   0.089635218140555
   0.880787344015670   0.096367610313022   0.089635218140555
   0.214120677349004   0.429700943646355   0.089635218140555
   0.547454010682337   0.429700943646355   0.089635218140555
   0.880787344015670   0.429700943646355   0.089635218140555
   0.214120677349004   0.763034276979688   0.089635218140555
   0.547454010682337   0.763034276979688   0.089635218140555
   0.880787344015670   0.763034276979688   0.089635218140555
   0.214120677349004   0.096367610313022   0.422968551473888
   0.547454010682337   0.096367610313022   0.422968551473888
   0.880787344015670   0.096367610313022   0.422968551473888
   0.214120677349004   0.429700943646355   0.422968551473888
   0.547454010682337   0.429700943646355   0.422968551473888
   0.880787344015670   0.429700943646355   0.422968551473888
   0.214120677349004   0.763034276979688   0.422968551473888
   0.547454010682337   0.763034276979688   0.422968551473888
   0.880787344015670   0.763034276979688   0.422968551473888
   0.214120677349004   0.096367610313022   0.756301884807222
   0.547454010682337   0.096367610313022   0.756301884807222
   0.880787344015670   0.096367610313022   0.756301884807222
   0.214120677349004   0.429700943646355   0.756301884807222
   0.547454010682337   0.429700943646355   0.756301884807222
   0.880787344015670   0.429700943646355   0.756301884807222
   0.214120677349004   0.763034276979688   0.756301884807222
   0.547454010682337   0.763034276979688   0.756301884807222
   0.880787344015670   0.763034276979688   0.756301884807222
   0.119211939103548   0.263034207928968   0.243697188258039
   0.452545272436881   0.263034207928968   0.243697188258039
   0.785878605770215   0.263034207928968   0.243697188258039
   0.119211939103548   0.596367541262301   0.243697188258039
   0.452545272436881   0.596367541262301   0.243697188258039
   0.785878605770215   0.596367541262301   0.243697188258039
   0.119211939103548   0.929700874595634   0.243697188258039
   0.452545272436881   0.929700874595634   0.243697188258039
   0.785878605770215   0.929700874595634   0.243697188258039
   0.119211939103548   0.263034207928968   0.577030521591373
   0.452545272436881   0.263034207928968   0.577030521591373
   0.785878605770215   0.263034207928968   0.577030521591373
   0.119211939103548   0.596367541262301   0.577030521591373
   0.452545272436881   0.596367541262301   0.577030521591373
   0.785878605770215   0.596367541262301   0.577030521591373
   0.119211939103548   0.929700874595634   0.577030521591373
   0.452545272436881   0.929700874595634   0.577030521591373
   0.785878605770215   0.929700874595634   0.577030521591373
   0.119211939103548   0.263034207928968   0.910363854924706
   0.452545272436881   0.263034207928968   0.910363854924706
   0.785878605770215   0.263034207928968   0.910363854924706
   0.119211939103548   0.596367541262301   0.910363854924706
   0.452545272436881   0.596367541262301   0.910363854924706
   0.785878605770215   0.596367541262301   0.910363854924706
   0.119211939103548   0.929700874595634   0.910363854924706
   0.452545272436881   0.929700874595634   0.910363854924706
   0.785878605770215   0.929700874595634   0.910363854924706
   0.195684029120545   0.003976345714994   0.081701180920059
   0.529017362453878   0.003976345714994   0.081701180920059
   0.862350695787211   0.003976345714994   0.081701180920059
   0.195684029120545   0.337309679048327   0.081701180920059
   0.529017362453878   0.337309679048327   0.081701180920059
   0.862350695787211   0.337309679048327   0.081701180920059
   0.195684029120545   0.670643012381660   0.081701180920059
   0.529017362453878   0.670643012381660   0.081701180920059
   0.862350695787211   0.670643012381660   0.081701180920059
   0.195684029120545   0.003976345714994   0.415034514253392
   0.529017362453878   0.003976345714994   0.415034514253392
   0.862350695787211   0.003976345714994   0.415034514253392
   0.195684029120545   0.337309679048327   0.415034514253392
   0.529017362453878   0.337309679048327   0.415034514253392
   0.862350695787211   0.337309679048327   0.415034514253392
   0.195684029120545   0.670643012381660   0.415034514253392
   0.529017362453878   0.670643012381660   0.415034514253392
   0.862350695787211   0.670643012381660   0.415034514253392
   0.195684029120545   0.003976345714994   0.748367847586725
   0.529017362453878   0.003976345714994   0.748367847586725
   0.862350695787211   0.003976345714994   0.748367847586725
   0.195684029120545   0.337309679048327   0.748367847586725
   0.529017362453878   0.337309679048327   0.748367847586725
   0.862350695787211   0.337309679048327   0.748367847586725
   0.195684029120545   0.670643012381660   0.748367847586725
   0.529017362453878   0.670643012381660   0.748367847586725
   0.862350695787211   0.670643012381660   0.748367847586725
   0.137648774331330   0.170642975688615   0.251631156177237
   0.470982107664663   0.170642975688615   0.251631156177237
   0.804315440997996   0.170642975688615   0.251631156177237
   0.137648774331330   0.503976309021948   0.251631156177237
   0.470982107664663   0.503976309021948   0.251631156177237
   0.804315440997996   0.503976309021948   0.251631156177237
   0.137648774331330   0.837309642355282   0.251631156177237
   0.470982107664663   0.837309642355282   0.251631156177237
   0.804315440997996   0.837309642355282   0.251631156177237
   0.137648774331330   0.170642975688615   0.584964489510571
   0.470982107664663   0.170642975688615   0.584964489510571
   0.804315440997996   0.170642975688615   0.584964489510571
   0.137648774331330   0.503976309021948   0.584964489510571
   0.470982107664663   0.503976309021948   0.584964489510571
   0.804315440997996   0.503976309021948   0.584964489510571
   0.137648774331330   0.837309642355282   0.584964489510571
   0.470982107664663   0.837309642355282   0.584964489510571
   0.804315440997996   0.837309642355282   0.584964489510571
   0.137648774331330   0.170642975688615   0.918297822843904
   0.470982107664663   0.170642975688615   0.918297822843904
   0.804315440997996   0.170642975688615   0.918297822843904
   0.137648774331330   0.503976309021948   0.918297822843904
   0.470982107664663   0.503976309021948   0.918297822843904
   0.804315440997996   0.503976309021948   0.918297822843904
   0.137648774331330   0.837309642355282   0.918297822843904
   0.470982107664663   0.837309642355282   0.918297822843904
   0.804315440997996   0.837309642355282   0.918297822843904
   0.101081779142504   0.127205638486679   0.026419892239344
   0.434415112475837   0.127205638486679   0.026419892239344
   0.767748445809171   0.127205638486679   0.026419892239344
   0.101081779142504   0.460538971820012   0.026419892239344
   0.434415112475837   0.460538971820012   0.026419892239344
   0.767748445809171   0.460538971820012   0.026419892239344
   0.101081779142504   0.793872305153345   0.026419892239344
   0.434415112475837   0.793872305153345   0.026419892239344
   0.767748445809171   0.793872305153345   0.026419892239344
   0.101081779142504   0.127205638486679   0.359753225572677
   0.434415112475837   0.127205638486679   0.359753225572677
   0.767748445809171   0.127205638486679   0.359753225572677
   0.101081779142504   0.460538971820012   0.359753225572677
   0.434415112475837   0.460538971820012   0.359753225572677
   0.767748445809171   0.460538971820012   0.359753225572677
   0.101081779142504   0.793872305153345   0.359753225572677
   0.434415112475837   0.793872305153345   0.359753225572677
   0.767748445809171   0.793872305153345   0.359753225572677
   0.101081779142504   0.127205638486679   0.693086558906010
   0.434415112475837   0.127205638486679   0.693086558906010
   0.767748445809171   0.127205638486679   0.693086558906010
   0.101081779142504   0.460538971820012   0.693086558906010
   0.434415112475837   0.460538971820012   0.693086558906010
   0.767748445809171   0.460538971820012   0.693086558906010
   0.101081779142504   0.793872305153345   0.693086558906010
   0.434415112475837   0.793872305153345   0.693086558906010
   0.767748445809171   0.793872305153345   0.693086558906010
   0.232250645403153   0.293872443583877   0.306913013874599
   0.565583978736486   0.293872443583877   0.306913013874599
   0.898917312069820   0.293872443583877   0.306913013874599
   0.232250645403153   0.627205776917210   0.306913013874599
   0.565583978736486   0.627205776917210   0.306913013874599
   0.898917312069820   0.627205776917210   0.306913013874599
   0.232250645403153   0.960539110250544   0.306913013874599
   0.565583978736486   0.960539110250544   0.306913013874599
   0.898917312069820   0.960539110250544   0.306913013874599
   0.232250645403153   0.293872443583877   0.640246347207932
   0.565583978736486   0.293872443583877   0.640246347207932
   0.898917312069820   0.293872443583877   0.640246347207932
   0.232250645403153   0.627205776917210   0.640246347207932
   0.565583978736486   0.627205776917210   0.640246347207932
   0.898917312069820   0.627205776917210   0.640246347207932
   0.232250645403153   0.960539110250544   0.640246347207932
   0.565583978736486   0.960539110250544   0.640246347207932
   0.898917312069820   0.960539110250544   0.640246347207932
   0.232250645403153   0.293872443583877   0.973579680541266
   0.565583978736486   0.293872443583877   0.973579680541266
   0.898917312069820   0.293872443583877   0.973579680541266
   0.232250645403153   0.627205776917210   0.973579680541266
   0.565583978736486   0.627205776917210   0.973579680541266
   0.898917312069820   0.627205776917210   0.973579680541266
   0.232250645403153   0.960539110250544   0.973579680541266
   0.565583978736486   0.960539110250544   0.973579680541266
   0.898917312069820   0.960539110250544   0.973579680541266
   0.142085395181631   0.066261205014293   0.312755409816859