 C  O  N  H 
 1.0000000000000000
    20.0000000000000000    0.0000000000000000    0.0000000000000000
     0.0000000000000000   20.0000000000000000    0.0000000000000000
     0.0000000000000000    0.0000000000000000   20.0000000000000000
 C   O   N   H  
   1   1   1   3
Cartesian
  5.9833477690932497  5.1554022938712381  4.9774230793157557
  6.7387227700541210  5.8814862451691488  4.3497290998527118
  4.6234590446391515  5.3019846783358124  5.0282678476716161
  4.0485268856565417  4.6709058480308068  5.5642496438787230
  4.1822739611699298  6.0556553923120058  4.5205790645308097
  6.3344595693870041  4.2948355422809783  5.5750412647503857
