 C  H  N 
 1.0000000000000000
    19.2940000000000005    0.0000000000000000    0.0000000000000000
     0.0000000000000000   16.7090999999999994    0.0000000000000000
     0.0000000000000000    0.0000000000000000   14.5619999999999994
 C   H   N  
 144 144 144
Cartesian
 18.6416441719905244  1.1299145767866241  1.8202499678661557
  5.4758559560342839  7.2246354362130241  5.4607498535024392
  4.1711431191327764  7.2246339659998071  1.8202494607731696
  0.6523576151651859  1.1299164073245846  5.4607506664788810
  1.3047132082856578  0.0000001837550588  1.8202500649203996
  3.5187873668462686  8.3545498504057694  5.4607495462083362
  4.1709374619055302  3.9146771409957193  4.2471765845668221
  5.4756771921870984  1.6548005867704241  0.6066762505733116
  4.1713218012157238  1.6547993916302428  4.2471760662387856
  5.4760636414066051  3.9146785719386448  0.6066767286476269
  6.1282405024675768  2.7850728394714439  4.2471762536739739
  3.5187596692674763  2.7850723573311620  0.6066764179792365
 18.6418232494253360  6.6997497923154103  6.6743237396756960
  0.6525630179685904  4.4398725289017129  3.0338232982785862
 18.6414359940903438  4.4398714138493434  6.6743237494266880
  0.6521788011239500  6.6997510170232362  3.0338233433047752
  1.3047408710264299  5.5694774002280427  6.6743237019175483
 17.9892598006223565  5.5694771428641907  3.0338235926337584
 18.6416441719905244  1.1299145767866241  9.1012499678661563
  5.4758559560342839  7.2246354362130241 12.7417498535024389
  4.1711431191327764  7.2246339659998071  9.1012494607731700
  0.6523576151651859  1.1299164073245846 12.7417506664788807
  1.3047132082856578  0.0000001837550588  9.1012500649203982
  3.5187873668462686  8.3545498504057694 12.7417495462083359
  4.1709374619055302  3.9146771409957193 11.5281765845668218
  5.4756771921870984  1.6548005867704241  7.8876762505733113
  4.1713218012157238  1.6547993916302428 11.5281760662387853
  5.4760636414066051  3.9146785719386448  7.8876767286476257
  6.1282405024675768  2.7850728394714439 11.5281762536739727
  3.5187596692674763  2.7850723573311620  7.8876764179792360
 18.6418232494253360  6.6997497923154103 13.9553237396756948
  0.6525630179685904  4.4398725289017129 10.3148232982785863
 18.6414359940903438  4.4398714138493434 13.9553237494266877
  0.6521788011239500  6.6997510170232362 10.3148233433047736
  1.3047408710264299  5.5694774002280427 13.9553237019175480
 17.9892598006223565  5.5694771428641907 10.3148235926337577
  8.9946441719905241  1.1299145767866241  1.8202499678661557
 15.1228559560342841  7.2246354362130241  5.4607498535024392
 13.8181431191327775  7.2246339659998071  1.8202494607731696
 10.2993576151651869  1.1299164073245846  5.4607506664788810
 10.9517132082856588  0.0000001837550588  1.8202500649203996
 13.1657873668462688  8.3545498504057694  5.4607495462083362
 13.8179374619055313  3.9146771409957193  4.2471765845668221
 15.1226771921870977  1.6548005867704241  0.6066762505733116
 13.8183218012157241  1.6547993916302428  4.2471760662387856
 15.1230636414066080  3.9146785719386448  0.6066767286476269
 15.7752405024675770  2.7850728394714439  4.2471762536739739
 13.1657596692674765  2.7850723573311620  0.6066764179792365
  8.9948232494253340  6.6997497923154103  6.6743237396756960
 10.2995630179685911  4.4398725289017129  3.0338232982785862
  8.9944359940903436  4.4398714138493434  6.6743237494266880
 10.2991788011239507  6.6997510170232362  3.0338233433047752
 10.9517408710264306  5.5694774002280427  6.6743237019175483
  8.3422598006223545  5.5694771428641907  3.0338235926337584
  8.9946441719905241  1.1299145767866241  9.1012499678661563
 15.1228559560342841  7.2246354362130241 12.7417498535024389
 13.8181431191327775  7.2246339659998071  9.1012494607731700
 10.2993576151651869  1.1299164073245846 12.7417506664788807
 10.9517132082856588  0.0000001837550588  9.1012500649203982
 13.1657873668462688  8.3545498504057694 12.7417495462083359
 13.8179374619055313  3.9146771409957193 11.5281765845668218
 15.1226771921870977  1.6548005867704241  7.8876762505733113
 13.8183218012157241  1.6547993916302428 11.5281760662387853
 15.1230636414066080  3.9146785719386448  7.8876767286476257
 15.7752405024675770  2.7850728394714439 11.5281762536739727
 13.1657596692674765  2.7850723573311620  7.8876764179792360
  8.9948232494253340  6.6997497923154103 13.9553237396756948
 10.2995630179685911  4.4398725289017129 10.3148232982785863
  8.9944359940903436  4.4398714138493434 13.9553237494266877
 10.2991788011239507  6.6997510170232362 10.3148233433047736
 10.9517408710264306  5.5694774002280427 13.9553237019175480
  8.3422598006223545  5.5694771428641907 10.3148235926337577
  4.1711441719905240  9.4844645767866247  1.8202499678661557
 10.2993559560342849 15.5791854362130238  5.4607498535024392
  8.9946431191327765 15.5791839659998068  1.8202494607731696
  5.4758576151651868  9.4844664073245841  5.4607506664788810
  6.1282132082856577  8.3545501837550589  1.8202500649203996
  8.3422873668462678 -0.0000001495942284  5.4607495462083362
  8.9944374619055303 12.2692271409957190  4.2471765845668221
 10.2991771921870985 10.0093505867704238  0.6066762505733116
  8.9948218012157248 10.0093493916302432  4.2471760662387856
 10.2995636414066052 12.2692285719386458  0.6066767286476269
 10.9517405024675760 11.1396228394714445  4.2471762536739739
  8.3422596692674755 11.1396223573311612  0.6066764179792365
  4.1713232494253347 15.0542997923154100  6.6743237396756960
  5.4760630179685901 12.7944225289017126  3.0338232982785862
  4.1709359940903417 12.7944214138493422  6.6743237494266880
  5.4756788011239497 15.0543010170232350  3.0338233433047752
  6.1282408710264296 13.9240274002280433  6.6743237019175483
  3.5187598006223548 13.9240271428641904  3.0338235926337584
  4.1711441719905240  9.4844645767866247  9.1012499678661563
 10.2993559560342849 15.5791854362130238 12.7417498535024389
  8.9946431191327765 15.5791839659998068  9.1012494607731700
  5.4758576151651868  9.4844664073245841 12.7417506664788807
  6.1282132082856577  8.3545501837550589  9.1012500649203982
  8.3422873668462678 -0.0000001495942284 12.7417495462083359
  8.9944374619055303 12.2692271409957190 11.5281765845668218
 10.2991771921870985 10.0093505867704238  7.8876762505733113
  8.9948218012157248 10.0093493916302432 11.5281760662387853
 10.2995636414066052 12.2692285719386458  7.8876767286476257
 10.9517405024675760 11.1396228394714445 11.5281762536739727
  8.3422596692674755 11.1396223573311612  7.8876764179792360
  4.1713232494253347 15.0542997923154100 13.9553237396756948
  5.4760630179685901 12.7944225289017126 10.3148232982785863
  4.1709359940903417 12.7944214138493422 13.9553237494266877
  5.4756788011239497 15.0543010170232350 10.3148233433047736
  6.1282408710264296 13.9240274002280433 13.9553237019175480
  3.5187598006223548 13.9240271428641904 10.3148235926337577
 13.8181441719905251  9.4844645767866247  1.8202499678661557
  0.6523559560342851 15.5791854362130238  5.4607498535024392
 18.6416431191327767 15.5791839659998068  1.8202494607731696
 15.1228576151651897  9.4844664073245841  5.4607506664788810
 15.7752132082856598  8.3545501837550589  1.8202500649203996
 17.9892873668462698 -0.0000001495942284  5.4607495462083362
 18.6414374619055323 12.2692271409957190  4.2471765845668221
  0.6521771921871036 10.0093505867704238  0.6066762505733116
 18.6418218012157269 10.0093493916302432  4.2471760662387856
  0.6525636414066061 12.2692285719386458  0.6066767286476269
  1.3047405024675778 11.1396228394714445  4.2471762536739739
 17.9892596692674758 11.1396223573311612  0.6066764179792365
 13.8183232494253350 15.0542997923154100  6.6743237396756960
 15.1230630179685939 12.7944225289017126  3.0338232982785862
 13.8179359940903428 12.7944214138493422  6.6743237494266880
 15.1226788011239535 15.0543010170232350  3.0338233433047752
 15.7752408710264316 13.9240274002280433  6.6743237019175483
 13.1657598006223555 13.9240271428641904  3.0338235926337584
 13.8181441719905251  9.4844645767866247  9.1012499678661563
  0.6523559560342851 15.5791854362130238 12.7417498535024389
 18.6416431191327767 15.5791839659998068  9.1012494607731700
 15.1228576151651897  9.4844664073245841 12.7417506664788807
 15.7752132082856598  8.3545501837550589  9.1012500649203982
 17.9892873668462698 -0.0000001495942284 12.7417495462083359
 18.6414374619055323 12.2692271409957190 11.5281765845668218
  0.6521771921871036 10.0093505867704238  7.8876762505733113
 18.6418218012157269 10.0093493916302432 11.5281760662387853
  0.6525636414066061 12.2692285719386458  7.8876767286476257
  1.3047405024675778 11.1396228394714445 11.5281762536739727
 17.9892596692674758 11.1396223573311612  7.8876764179792360
 13.8183232494253350 15.0542997923154100 13.9553237396756948
 15.1230630179685939 12.7944225289017126 10.3148232982785863
 13.8179359940903428 12.7944214138493422 13.9553237494266877
 15.1226788011239535 15.0543010170232350 10.3148233433047736
 15.7752408710264316 13.9240274002280433 13.9553237019175480
 13.1657598006223555 13.9240271428641904 10.3148235926337577
  8.4484532414264066  2.0759442491931219  1.8202502583011886
 15.6690471669641838  6.2786057707562302  5.4607497496846706
  3.6249526445769975  6.2786045193836530  1.8202497910321658
  1.1985478495554573  2.0759455699012723  5.4607503166520415
 16.8675949846657396  8.3545498877390578  1.8202499335773310
  7.2499055441090370  0.0000001122609412  5.4607499307418079
  3.6248176943028834  4.8606736542733655  4.2472682238170387
  6.0218748962973327  0.7088491783960392  0.6067677555494347
  3.6251250613272878  0.7088481287865365  4.2472677396586294
  6.0221826381310670  4.8606745899528265  0.6067683103396672
  7.2205573841126531  2.7850275473281214  4.2472678472139664
  2.4264427053314526  2.7850276103479841  0.6067682766037827
 18.0956255477826566  7.6457009347106419  6.6742323248360709
  1.1986826421436152  3.4938763635042638  3.0337316041452356
 18.0953174244313679  3.4938753336415682  6.6742319403946864
  1.1983755102758180  7.6457019332585912  3.0337318596301222
  2.3970576965528148  5.5695221215322457  6.6742318585924805
 16.8969428212751893  5.5695226386795129  3.0337320326980382
  8.4484532414264066  2.0759442491931219  9.1012502583011887
 15.6690471669641838  6.2786057707562302 12.7417497496846703
  3.6249526445769975  6.2786045193836530  9.1012497910321652
  1.1985478495554573  2.0759455699012723 12.7417503166520412
 16.8675949846657396  8.3545498877390578  9.1012499335773303
  7.2499055441090370  0.0000001122609412 12.7417499307418076
  3.6248176943028834  4.8606736542733655 11.5282682238170384
  6.0218748962973327  0.7088491783960392  7.8877677555494339
  3.6251250613272878  0.7088481287865365 11.5282677396586291
  6.0221826381310670  4.8606745899528265  7.8877683103396672
  7.2205573841126531  2.7850275473281214 11.5282678472139661
  2.4264427053314526  2.7850276103479841  7.8877682766037820
 18.0956255477826566  7.6457009347106419 13.9552323248360715
  1.1986826421436152  3.4938763635042638 10.3147316041452353
 18.0953174244313679  3.4938753336415682 13.9552319403946861
  1.1983755102758180  7.6457019332585912 10.3147318596301218
  2.3970576965528148  5.5695221215322457 13.9552318585924802
 16.8969428212751893  5.5695226386795129 10.3147320326980374
 18.0954532414264051  2.0759442491931219  1.8202502583011886
  6.0220471669641844  6.2786057707562302  5.4607497496846706
 13.2719526445769986  6.2786045193836530  1.8202497910321658
 10.8455478495554587  2.0759455699012723  5.4607503166520415
  7.2205949846657393  8.3545498877390578  1.8202499335773310
 16.8969055441090354  0.0000001122609412  5.4607499307418079
 13.2718176943028840  4.8606736542733655  4.2472682238170387
 15.6688748962973339  0.7088491783960392  0.6067677555494347
 13.2721250613272872  0.7088481287865365  4.2472677396586294
 15.6691826381310673  4.8606745899528265  0.6067683103396672
 16.8675573841126507  2.7850275473281214  4.2472678472139664
 12.0734427053314537  2.7850276103479841  0.6067682766037827
  8.4486255477826546  7.6457009347106419  6.6742323248360709
 10.8456826421436165  3.4938763635042638  3.0337316041452356
  8.4483174244313659  3.4938753336415682  6.6742319403946864
 10.8453755102758187  7.6457019332585912  3.0337318596301222
 12.0440576965528159  5.5695221215322457  6.6742318585924805
  7.2499428212751891  5.5695226386795129  3.0337320326980382
 18.0954532414264051  2.0759442491931219  9.1012502583011887
  6.0220471669641844  6.2786057707562302 12.7417497496846703
 13.2719526445769986  6.2786045193836530  9.1012497910321652
 10.8455478495554587  2.0759455699012723 12.7417503166520412
  7.2205949846657393  8.3545498877390578  9.1012499335773303
 16.8969055441090354  0.0000001122609412 12.7417499307418076
 13.2718176943028840  4.8606736542733655 11.5282682238170384
 15.6688748962973339  0.7088491783960392  7.8877677555494339
 13.2721250613272872  0.7088481287865365 11.5282677396586291
 15.6691826381310673  4.8606745899528265  7.8877683103396672
 16.8675573841126507  2.7850275473281214 11.5282678472139661
 12.0734427053314537  2.7850276103479841  7.8877682766037820
  8.4486255477826546  7.6457009347106419 13.9552323248360715
 10.8456826421436165  3.4938763635042638 10.3147316041452353
  8.4483174244313659  3.4938753336415682 13.9552319403946861
 10.8453755102758187  7.6457019332585912 10.3147318596301218
 12.0440576965528159  5.5695221215322457 13.9552318585924802
  7.2499428212751891  5.5695226386795129 10.3147320326980374
 13.2719532414264059 10.4304942491931225  1.8202502583011886
  1.1985471669641834 14.6331557707562290  5.4607497496846706
  8.4484526445769976 14.6331545193836519  1.8202497910321658
  6.0220478495554577 10.4304955699012716  5.4607503166520415
  2.3970949846657392 -0.0000001122609402  1.8202499335773310
 12.0734055441090362  8.3545501122609416  5.4607499307418079
  8.4483176943028830 13.2152236542733661  4.2472682238170387
 10.8453748962973329  9.0633991783960397  0.6067677555494347
  8.4486250613272880  9.0633981287865364  4.2472677396586294
 10.8456826381310663 13.2152245899528271  0.6067683103396672
 12.0440573841126533 11.1395775473281216  4.2472678472139664
  7.2499427053314536 11.1395776103479847  0.6067682766037827
  3.6251255477826541 16.0002509347106425  6.6742323248360709
  6.0221826421436164 11.8484263635042630  3.0337316041452356
  3.6248174244313653 11.8484253336415684  6.6742319403946864
  6.0218755102758177 16.0002519332585891  3.0337318596301222
  7.2205576965528158 13.9240721215322445  6.6742318585924805
  2.4264428212751894 13.9240726386795117  3.0337320326980382
 13.2719532414264059 10.4304942491931225  9.1012502583011887
  1.1985471669641834 14.6331557707562290 12.7417497496846703
  8.4484526445769976 14.6331545193836519  9.1012497910321652
  6.0220478495554577 10.4304955699012716 12.7417503166520412
  2.3970949846657392 -0.0000001122609402  9.1012499335773303
 12.0734055441090362  8.3545501122609416 12.7417499307418076
  8.4483176943028830 13.2152236542733661 11.5282682238170384
 10.8453748962973329  9.0633991783960397  7.8877677555494339
  8.4486250613272880  9.0633981287865364 11.5282677396586291
 10.8456826381310663 13.2152245899528271  7.8877683103396672
 12.0440573841126533 11.1395775473281216 11.5282678472139661
  7.2499427053314536 11.1395776103479847  7.8877682766037820
  3.6251255477826541 16.0002509347106425 13.9552323248360715
  6.0221826421436164 11.8484263635042630 10.3147316041452353
  3.6248174244313653 11.8484253336415684 13.9552319403946861
  6.0218755102758177 16.0002519332585891 10.3147318596301218
  7.2205576965528158 13.9240721215322445 13.9552318585924802
  2.4264428212751894 13.9240726386795117 10.3147320326980374
  3.6249532414264087 10.4304942491931225  1.8202502583011886
 10.8455471669641845 14.6331557707562290  5.4607497496846706
 18.0954526445769979 14.6331545193836519  1.8202497910321658
 15.6690478495554579 10.4304955699012716  5.4607503166520415
 12.0440949846657404 -0.0000001122609402  1.8202499335773310
  2.4264055441090417  8.3545501122609416  5.4607499307418079
 18.0953176943028886 13.2152236542733661  4.2472682238170387
  1.1983748962973382  9.0633991783960397  0.6067677555494347
 18.0956250613272900  9.0633981287865364  4.2472677396586294
  1.1986826381310680 13.2152245899528271  0.6067683103396672
  2.3970573841126539 11.1395775473281216  4.2472678472139664
 16.8969427053314547 11.1395776103479847  0.6067682766037827
 13.2721255477826556 16.0002509347106425  6.6742323248360709
 15.6691826421436158 11.8484263635042630  3.0337316041452356
 13.2718174244313669 11.8484253336415684  6.6742319403946864
 15.6688755102758215 16.0002519332585891  3.0337318596301222
 16.8675576965528151 13.9240721215322445  6.6742318585924805
 12.0734428212751901 13.9240726386795117  3.0337320326980382
  3.6249532414264087 10.4304942491931225  9.1012502583011887
 10.8455471669641845 14.6331557707562290 12.7417497496846703
 18.0954526445769979 14.6331545193836519  9.1012497910321652
 15.6690478495554579 10.4304955699012716 12.7417503166520412
 12.0440949846657404 -0.0000001122609402  9.1012499335773303
  2.4264055441090417  8.3545501122609416 12.7417499307418076
 18.0953176943028886 13.2152236542733661 11.5282682238170384
  1.1983748962973382  9.0633991783960397  7.8877677555494339
 18.0956250613272900  9.0633981287865364 11.5282677396586291
  1.1986826381310680 13.2152245899528271  7.8877683103396672
  2.3970573841126539 11.1395775473281216 11.5282678472139661
 16.8969427053314547 11.1395776103479847  7.8877682766037820
 13.2721255477826556 16.0002509347106425 13.9552323248360715
 15.6691826421436158 11.8484263635042630 10.3147316041452353
 13.2718174244313669 11.8484253336415684 13.9552319403946861
 15.6688755102758215 16.0002519332585891 10.3147318596301218
 16.8675576965528151 13.9240721215322445 13.9552318585924802
 12.0734428212751901 13.9240726386795117 10.3147320326980374
  3.4479495284890072  8.3545496834392381  1.8202501948340921
  1.3755510615986757  0.0000004954835214  5.4607499311430105
 15.1582751880131674  7.1632883723110981  1.8202495763089330
 18.6062255012954481  1.1912618475198304  5.4607503445110810
  0.6877760598775500  1.1912620764743225  1.8202500922622997
  4.1357244231919488  7.1632881204198284  5.4607495733325369
  3.4479575895510801  2.7845581641390291  4.2472351866133007
  6.1990422562537058  2.7845589416660661  0.6067349688999105
  5.5115233748984940  1.5937411553310152  4.2472345328789061
  4.1359817330930193  3.9762506896513830  0.6067355662827872
  5.5110188411782088  3.9762508226056092  4.2472351021947707
  4.1354757628441945  1.5937410230680673  0.6067349580859784
 17.9184580136905396  5.5699912449357880  6.6742652781289005
  1.3755428607418181  5.5699920271299170  3.0337644851595287
  0.6875182432702075  4.3782989620435622  6.6742646148746640
 18.6059769912334865  6.7608088584096571  3.0337651714812992
  0.6880247602065728  6.7608085124824919  6.6742651983772472
 18.6064816539601630  4.3782993672154218  3.0337647506534071
  3.4479495284890072  8.3545496834392381  9.1012501948340923
  1.3755510615986757  0.0000004954835214 12.7417499311430102
 15.1582751880131674  7.1632883723110981  9.1012495763089323
 18.6062255012954481  1.1912618475198304 12.7417503445110807
  0.6877760598775500  1.1912620764743225  9.1012500922622994
  4.1357244231919488  7.1632881204198284 12.7417495733325357
  3.4479575895510801  2.7845581641390291 11.5282351866133013
  6.1990422562537058  2.7845589416660661  7.8877349688999097
  5.5115233748984940  1.5937411553310152 11.5282345328789031
  4.1359817330930193  3.9762506896513830  7.8877355662827870
  5.5110188411782088  3.9762508226056092 11.5282351021947704
  4.1354757628441945  1.5937410230680673  7.8877349580859777
 17.9184580136905396  5.5699912449357880 13.9552652781289002
  1.3755428607418181  5.5699920271299170 10.3147644851595288
  0.6875182432702075  4.3782989620435622 13.9552646148746629
 18.6059769912334865  6.7608088584096571 10.3147651714812980
  0.6880247602065728  6.7608085124824919 13.9552651983772478
 18.6064816539601630  4.3782993672154218 10.3147647506534064
 13.0949495284890070  8.3545496834392381  1.8202501948340921
 11.0225510615986764  0.0000004954835214  5.4607499311430105
  5.5112751880131672  7.1632883723110981  1.8202495763089330
  8.9592255012954478  1.1912618475198304  5.4607503445110810
 10.3347760598775498  1.1912620764743225  1.8202500922622997
 13.7827244231919490  7.1632881204198284  5.4607495733325369
 13.0949575895510808  2.7845581641390291  4.2472351866133007
 15.8460422562537087  2.7845589416660661  0.6067349688999105
 15.1585233748984933  1.5937411553310152  4.2472345328789061
 13.7829817330930204  3.9762506896513830  0.6067355662827872
 15.1580188411782082  3.9762508226056092  4.2472351021947707
 13.7824757628441965  1.5937410230680673  0.6067349580859784
  8.2714580136905411  5.5699912449357880  6.6742652781289005
 11.0225428607418188  5.5699920271299170  3.0337644851595287
 10.3345182432702085  4.3782989620435622  6.6742646148746640
  8.9589769912334880  6.7608088584096571  3.0337651714812992
 10.3350247602065721  6.7608085124824919  6.6742651983772472
  8.9594816539601609  4.3782993672154218  3.0337647506534071
 13.0949495284890070  8.3545496834392381  9.1012501948340923
 11.0225510615986764  0.0000004954835214 12.7417499311430102
  5.5112751880131672  7.1632883723110981  9.1012495763089323
  8.9592255012954478  1.1912618475198304 12.7417503445110807
 10.3347760598775498  1.1912620764743225  9.1012500922622994
 13.7827244231919490  7.1632881204198284 12.7417495733325357
 13.0949575895510808  2.7845581641390291 11.5282351866133013
 15.8460422562537087  2.7845589416660661  7.8877349688999097
 15.1585233748984933  1.5937411553310152 11.5282345328789031
 13.7829817330930204  3.9762506896513830  7.8877355662827870
 15.1580188411782082  3.9762508226056092 11.5282351021947704
 13.7824757628441965  1.5937410230680673  7.8877349580859777
  8.2714580136905411  5.5699912449357880 13.9552652781289002
 11.0225428607418188  5.5699920271299170 10.3147644851595288
 10.3345182432702085  4.3782989620435622 13.9552646148746629
  8.9589769912334880  6.7608088584096571 10.3147651714812980
 10.3350247602065721  6.7608085124824919 13.9552651983772478
  8.9594816539601609  4.3782993672154218 10.3147647506534064
  8.2714495284890077 -0.0000003165607587  1.8202501948340921
  6.1990510615986754  8.3545504954835206  5.4607499311430105
  0.6877751880131671 15.5178383723110969  1.8202495763089330
  4.1357255012954477  9.5458118475198308  5.4607503445110810
  5.5112760598775505  9.5458120764743217  1.8202500922622997
  8.9592244231919480 15.5178381204198281  5.4607495733325369
  8.2714575895510798 11.1391081641390279  4.2472351866133007
 11.0225422562537059 11.1391089416660662  0.6067349688999105
 10.3350233748984941  9.9482911553310149  4.2472345328789061
  8.9594817330930194 12.3308006896513831  0.6067355662827872
 10.3345188411782090 12.3308008226056085  4.2472351021947707
  8.9589757628441937  9.9482910230680677  0.6067349580859784
  3.4479580136905406 13.9245412449357886  6.6742652781289005
  6.1990428607418178 13.9245420271299167  3.0337644851595287
  5.5110182432702075 12.7328489620435619  6.6742646148746640
  4.1354769912334879 15.1153588584096568  3.0337651714812992
  5.5115247602065738 15.1153585124824907  6.6742651983772472
  4.1359816539601608 12.7328493672154224  3.0337647506534071
  8.2714495284890077 -0.0000003165607587  9.1012501948340923
  6.1990510615986754  8.3545504954835206 12.7417499311430102
  0.6877751880131671 15.5178383723110969  9.1012495763089323
  4.1357255012954477  9.5458118475198308 12.7417503445110807
  5.5112760598775505  9.5458120764743217  9.1012500922622994
  8.9592244231919480 15.5178381204198281 12.7417495733325357
  8.2714575895510798 11.1391081641390279 11.5282351866133013
 11.0225422562537059 11.1391089416660662  7.8877349688999097
 10.3350233748984941  9.9482911553310149 11.5282345328789031
  8.9594817330930194 12.3308006896513831  7.8877355662827870
 10.3345188411782090 12.3308008226056085 11.5282351021947704
  8.9589757628441937  9.9482910230680677  7.8877349580859777
  3.4479580136905406 13.9245412449357886 13.9552652781289002
  6.1990428607418178 13.9245420271299167 10.3147644851595288
  5.5110182432702075 12.7328489620435619 13.9552646148746629
  4.1354769912334879 15.1153588584096568 10.3147651714812980
  5.5115247602065738 15.1153585124824907 13.9552651983772478
  4.1359816539601608 12.7328493672154224 10.3147647506534064
 17.9184495284890062 -0.0000003165607587  1.8202501948340921
 15.8460510615986792  8.3545504954835206  5.4607499311430105
 10.3347751880131700 15.5178383723110969  1.8202495763089330
 13.7827255012954488  9.5458118475198308  5.4607503445110810
 15.1582760598775508  9.5458120764743217  1.8202500922622997
 18.6062244231919500 15.5178381204198281  5.4607495733325369
 17.9184575895510818 11.1391081641390279  4.2472351866133007
  1.3755422562537070 11.1391089416660662  0.6067349688999105
  0.6880233748984991  9.9482911553310149  4.2472345328789061
 18.6064817330930197 12.3308006896513831  0.6067355662827872
  0.6875188411782140 12.3308008226056085  4.2472351021947707
 18.6059757628441957  9.9482910230680677  0.6067349580859784
 13.0949580136905421 13.9245412449357886  6.6742652781289005
 15.8460428607418216 13.9245420271299167  3.0337644851595287
 15.1580182432702113 12.7328489620435619  6.6742646148746640
 13.7824769912334908 15.1153588584096568  3.0337651714812992
 15.1585247602065749 15.1153585124824907  6.6742651983772472
 13.7829816539601637 12.7328493672154224  3.0337647506534071
 17.9184495284890062 -0.0000003165607587  9.1012501948340923
 15.8460510615986792  8.3545504954835206 12.7417499311430102
 10.3347751880131700 15.5178383723110969  9.1012495763089323
 13.7827255012954488  9.5458118475198308 12.7417503445110807
 15.1582760598775508  9.5458120764743217  9.1012500922622994
 18.6062244231919500 15.5178381204198281 12.7417495733325357
 17.9184575895510818 11.1391081641390279 11.5282351866133013
  1.3755422562537070 11.1391089416660662  7.8877349688999097
  0.6880233748984991  9.9482911553310149 11.5282345328789031
 18.6064817330930197 12.3308006896513831  7.8877355662827870
  0.6875188411782140 12.3308008226056085 11.5282351021947704
 18.6059757628441957  9.9482910230680677  7.8877349580859777
 13.0949580136905421 13.9245412449357886 13.9552652781289002
 15.8460428607418216 13.9245420271299167 10.3147644851595288
 15.1580182432702113 12.7328489620435619 13.9552646148746629
 13.7824769912334908 15.1153588584096568 10.3147651714812980
 15.1585247602065749 15.1153585124824907 13.9552651983772478
 13.7829816539601637 12.7328493672154224 10.3147647506534064
