 H  C  O 
 1.0000000000000000
    25.0000000000000000    0.0000000000000000    0.0000000000000000
     0.0000000000000000   25.0000000000000000    0.0000000000000000
     0.0000000000000000    0.0000000000000000   25.0000000000000000
 H   C   O  
   6   4   4
Cartesian
  8.9214463638116683 10.4888200823168312  7.0752373795483301
  7.6092004979867296  4.5124112686894851  8.9816525252580153
  7.1827809208715356  6.3209576843672064  6.0683837977651311
  5.5583932779999614  6.3631904612070675  6.7309571551424661
  6.0920532560170351  8.6345607530030151  5.9558265928787844
  6.0477578665552203  8.6779203153258457  7.7095597946051919
  6.5778179476874241  6.7328356931568045  6.8771059903138845
  6.5901671498919905  8.2659976985251227  6.8576400771452617
  8.0031563175577300  8.8309911803751238  6.8632300858501054
  7.0840760557906011  6.1692108521987414  8.1968851525097399
  9.0227650560153378  8.2043963369343693  6.6665652016522916
  7.9923918105757270 10.1888504211888122  7.0976845489681661
  7.2607046264337338  6.7966587483910770  9.2196322569535347
  7.3008288528052594  4.8114985043204639  8.1046794414092158
