 C  O  N  H 
        1.0000000000
  11.259526864691418   0.000000000000000   0.000000000000000
   0.000000000000000  11.259526864691418   0.000000000000000
   0.000000000000000   0.000000000000000  19.001187048835344
   32   32   64  128
 Direct
  -0.000000031857128   0.213561584141854   0.081177838568210
   0.499999968142872   0.213561584141854   0.081177838568210
  -0.000000031857128   0.713561584141854   0.081177838568210
   0.499999968142872   0.713561584141854   0.081177838568210
  -0.000000031857128   0.213561584141854   0.331177838568210
   0.499999968142872   0.213561584141854   0.331177838568210
  -0.000000031857128   0.713561584141854   0.331177838568210
   0.499999968142872   0.713561584141854   0.331177838568210
  -0.000000031857128   0.213561584141854   0.581177838568210
   0.499999968142872   0.213561584141854   0.581177838568210
  -0.000000031857128   0.713561584141854   0.581177838568210
   0.499999968142872   0.713561584141854   0.581177838568210
  -0.000000031857128   0.213561584141854   0.831177838568210
   0.499999968142872   0.213561584141854   0.831177838568210
  -0.000000031857128   0.713561584141854   0.831177838568210
   0.499999968142872   0.713561584141854   0.831177838568210
   0.249999954932658   0.463561584980557   0.168822147127001
   0.749999954932658   0.463561584980557   0.168822147127001
   0.249999954932658   0.963561584980557   0.168822147127001
   0.749999954932658   0.963561584980557   0.168822147127001
   0.249999954932658   0.463561584980557   0.418822147127001
   0.749999954932658   0.463561584980557   0.418822147127001
   0.249999954932658   0.963561584980557   0.418822147127001
   0.749999954932658   0.963561584980557   0.418822147127001
   0.249999954932658   0.463561584980557   0.668822147127001
   0.749999954932658   0.463561584980557   0.668822147127001
   0.249999954932658   0.963561584980557   0.668822147127001
   0.749999954932658   0.963561584980557   0.668822147127001
   0.249999954932658   0.463561584980557   0.918822147127001
   0.749999954932658   0.463561584980557   0.918822147127001
   0.249999954932658   0.963561584980557   0.918822147127001
   0.749999954932658   0.963561584980557   0.918822147127001
   0.499999974292821   0.213561564213405   0.148260997172839
   0.999999974292821   0.213561564213405   0.148260997172839
   0.499999974292821   0.713561564213405   0.148260997172839
   0.999999974292821   0.713561564213405   0.148260997172839
   0.499999974292821   0.213561564213405   0.398260997172839
   0.999999974292821   0.213561564213405   0.398260997172839
   0.499999974292821   0.713561564213405   0.398260997172839
   0.999999974292821   0.713561564213405   0.398260997172839
   0.499999974292821   0.213561564213405   0.648260997172839
   0.999999974292821   0.213561564213405   0.648260997172839
   0.499999974292821   0.713561564213405   0.648260997172839
   0.999999974292821   0.713561564213405   0.648260997172839
   0.499999974292821   0.213561564213405   0.898260997172839
   0.999999974292821   0.213561564213405   0.898260997172839
   0.499999974292821   0.713561564213405   0.898260997172839
   0.999999974292821   0.713561564213405   0.898260997172839
   0.249999980151719   0.463561623155010   0.101738983870124
   0.749999980151719   0.463561623155010   0.101738983870124
   0.249999980151719   0.963561623155010   0.101738983870124
   0.749999980151719   0.963561623155010   0.101738983870124
   0.249999980151719   0.463561623155010   0.351738983870124
   0.749999980151719   0.463561623155010   0.351738983870124
   0.249999980151719   0.963561623155010   0.351738983870124
   0.749999980151719   0.963561623155010   0.351738983870124
   0.249999980151719   0.463561623155010   0.601738983870124
   0.749999980151719   0.463561623155010   0.601738983870124
   0.249999980151719   0.963561623155010   0.601738983870124
   0.749999980151719   0.963561623155010   0.601738983870124
   0.249999980151719   0.463561623155010   0.851738983870124
   0.749999980151719   0.463561623155010   0.851738983870124
   0.249999980151719   0.963561623155010   0.851738983870124
   0.749999980151719   0.963561623155010   0.851738983870124
   0.072873072936462   0.286434727212579   0.044143182341994
   0.572873072936462   0.286434727212579   0.044143182341994
   0.072873072936462   0.786434727212579   0.044143182341994
   0.572873072936462   0.786434727212579   0.044143182341994
   0.072873072936462   0.286434727212579   0.294143182341994
   0.572873072936462   0.286434727212579   0.294143182341994
   0.072873072936462   0.786434727212579   0.294143182341994
   0.572873072936462   0.786434727212579   0.294143182341994
   0.072873072936462   0.286434727212579   0.544143182341994
   0.572873072936462   0.286434727212579   0.544143182341994
   0.072873072936462   0.786434727212579   0.544143182341994
   0.572873072936462   0.786434727212579   0.544143182341994
   0.072873072936462   0.286434727212579   0.794143182341994
   0.572873072936462   0.286434727212579   0.794143182341994
   0.072873072936462   0.786434727212579   0.794143182341994
   0.572873072936462   0.786434727212579   0.794143182341994
   0.427126836282498   0.140688475808334   0.044143180898977
   0.927126836282498   0.140688475808334   0.044143180898977
   0.427126836282498   0.640688475808334   0.044143180898977
   0.927126836282498   0.640688475808334   0.044143180898977
   0.427126836282498   0.140688475808334   0.294143180898977
   0.927126836282498   0.140688475808334   0.294143180898977
   0.427126836282498   0.640688475808334   0.294143180898977
   0.927126836282498   0.640688475808334   0.294143180898977
   0.427126836282498   0.140688475808334   0.544143180898977
   0.927126836282498   0.140688475808334   0.544143180898977
   0.427126836282498   0.640688475808334   0.544143180898977
   0.927126836282498   0.640688475808334   0.544143180898977
   0.427126836282498   0.140688475808334   0.794143180898977
   0.927126836282498   0.140688475808334   0.794143180898977
   0.427126836282498   0.640688475808334   0.794143180898977
   0.927126836282498   0.640688475808334   0.794143180898977
   0.322873073203444   0.390688438626876   0.205856814290591
   0.822873073203444   0.390688438626876   0.205856814290591
   0.322873073203444   0.890688438626876   0.205856814290591
   0.822873073203444   0.890688438626876   0.205856814290591
   0.322873073203444   0.390688438626876   0.455856814290591
   0.822873073203444   0.390688438626876   0.455856814290591
   0.322873073203444   0.890688438626876   0.455856814290591
   0.822873073203444   0.890688438626876   0.455856814290591
   0.322873073203444   0.390688438626876   0.705856814290591
   0.822873073203444   0.390688438626876   0.705856814290591
   0.322873073203444   0.890688438626876   0.705856814290591
   0.822873073203444   0.890688438626876   0.705856814290591
   0.322873073203444   0.390688438626876   0.955856814290591
   0.822873073203444   0.390688438626876   0.955856814290591
   0.322873073203444   0.890688438626876   0.955856814290591
   0.822873073203444   0.890688438626876   0.955856814290591
   0.177126839111495   0.036434728303983   0.205856815951883
   0.677126839111495   0.036434728303983   0.205856815951883
   0.177126839111495   0.536434728303983   0.205856815951883
   0.677126839111495   0.536434728303983   0.205856815951883
   0.177126839111495   0.036434728303983   0.455856815951883
   0.677126839111495   0.036434728303983   0.455856815951883
   0.177126839111495   0.536434728303983   0.455856815951883
   0.677126839111495   0.536434728303983   0.455856815951883
   0.177126839111495   0.036434728303983   0.705856815951883
   0.677126839111495   0.036434728303983   0.705856815951883
   0.177126839111495   0.536434728303983   0.705856815951883
   0.677126839111495   0.536434728303983   0.705856815951883
   0.177126839111495   0.036434728303983   0.955856815951883
   0.677126839111495   0.036434728303983   0.955856815951883
   0.177126839111495   0.536434728303983   0.955856815951883
   0.677126839111495   0.536434728303983   0.955856815951883
   0.128424041067339   0.341985105591081   0.070297667438187
   0.628424041067339   0.341985105591081   0.070297667438187
   0.128424041067339   0.841985105591081   0.070297667438187
   0.628424041067339   0.841985105591081   0.070297667438187
   0.128424041067339   0.341985105591081   0.320297667438187
   0.628424041067339   0.341985105591081   0.320297667438187
   0.128424041067339   0.841985105591081   0.320297667438187
   0.628424041067339   0.841985105591081   0.320297667438187
   0.128424041067339   0.341985105591081   0.570297667438187
   0.628424041067339   0.341985105591081   0.570297667438187
   0.128424041067339   0.841985105591081   0.570297667438187
   0.628424041067339   0.841985105591081   0.570297667438187
   0.128424041067339   0.341985105591081   0.820297667438187
   0.628424041067339   0.341985105591081   0.820297667438187
   0.128424041067339   0.841985105591081   0.820297667438187
   0.628424041067339   0.841985105591081   0.820297667438187
   0.371575900231863   0.085138057846072   0.070297659767959
   0.871575900231863   0.085138057846072   0.070297659767959
   0.371575900231863   0.585138057846072   0.070297659767959
   0.871575900231863   0.585138057846072   0.070297659767959
   0.371575900231863   0.085138057846072   0.320297659767959
   0.871575900231863   0.085138057846072   0.320297659767959
   0.371575900231863   0.585138057846072   0.320297659767959
   0.871575900231863   0.585138057846072   0.320297659767959
   0.371575900231863   0.085138057846072   0.570297659767959
   0.871575900231863   0.085138057846072   0.570297659767959
   0.371575900231863   0.585138057846072   0.570297659767959
   0.871575900231863   0.585138057846072   0.570297659767959
   0.371575900231863   0.085138057846072   0.820297659767959
   0.871575900231863   0.085138057846072   0.820297659767959
   0.371575900231863   0.585138057846072   0.820297659767959
   0.871575900231863   0.585138057846072   0.820297659767959
   0.378424037987801   0.335138062422859   0.179702316148328
   0.878424037987801   0.335138062422859   0.179702316148328
   0.378424037987801   0.835138062422859   0.179702316148328
   0.878424037987801   0.835138062422859   0.179702316148328
   0.378424037987801   0.335138062422859   0.429702316148328
   0.878424037987801   0.335138062422859   0.429702316148328
   0.378424037987801   0.835138062422859   0.429702316148328
   0.878424037987801   0.835138062422859   0.429702316148328
   0.378424037987801   0.335138062422859   0.679702316148328
   0.878424037987801   0.335138062422859   0.679702316148328
   0.378424037987801   0.835138062422859   0.679702316148328
   0.878424037987801   0.835138062422859   0.679702316148328
   0.378424037987801   0.335138062422859   0.929702316148328
   0.878424037987801   0.335138062422859   0.929702316148328
   0.378424037987801   0.835138062422859   0.929702316148328
   0.878424037987801   0.835138062422859   0.929702316148328
   0.121575900710407   0.091985140822585   0.179702324668927
   0.621575900710407   0.091985140822585   0.179702324668927
   0.121575900710407   0.591985140822585   0.179702324668927
   0.621575900710407   0.591985140822585   0.179702324668927
   0.121575900710407   0.091985140822585   0.429702324668927
   0.621575900710407   0.091985140822585   0.429702324668927
   0.121575900710407   0.591985140822585   0.429702324668927
   0.621575900710407   0.591985140822585   0.429702324668927
   0.121575900710407   0.091985140822585   0.679702324668927
   0.621575900710407   0.091985140822585   0.679702324668927
   0.121575900710407   0.591985140822585   0.679702324668927
   0.621575900710407   0.591985140822585   0.679702324668927
   0.121575900710407   0.091985140822585   0.929702324668927
   0.621575900710407   0.091985140822585   0.929702324668927
   0.121575900710407   0.591985140822585   0.929702324668927
   0.621575900710407   0.591985140822585   0.929702324668927
   0.072816433586308   0.286378139028401   0.240771674449673
   0.572816433586308   0.286378139028401   0.240771674449673
   0.072816433586308   0.786378139028401   0.240771674449673
   0.572816433586308   0.786378139028401   0.240771674449673
   0.072816433586308   0.286378139028401   0.490771674449673
   0.572816433586308   0.286378139028401   0.490771674449673
   0.072816433586308   0.786378139028401   0.490771674449673
   0.572816433586308   0.786378139028401   0.490771674449673
   0.072816433586308   0.286378139028401   0.740771674449673
   0.572816433586308   0.286378139028401   0.740771674449673
   0.072816433586308   0.786378139028401   0.740771674449673
   0.572816433586308   0.786378139028401   0.740771674449673
   0.072816433586308   0.286378139028401   0.990771674449673
   0.572816433586308   0.286378139028401   0.990771674449673
   0.072816433586308   0.786378139028401   0.990771674449673
   0.572816433586308   0.786378139028401   0.990771674449673
   0.427183444887032   0.140745087290567   0.240771675674782
   0.927183444887032   0.140745087290567   0.240771675674782
   0.427183444887032   0.640745087290567   0.240771675674782
   0.927183444887032   0.640745087290567   0.240771675674782
   0.427183444887032   0.140745087290567   0.490771675674782
   0.927183444887032   0.140745087290567   0.490771675674782
   0.427183444887032   0.640745087290567   0.490771675674782
   0.927183444887032   0.640745087290567   0.490771675674782
   0.427183444887032   0.140745087290567   0.740771675674782
   0.927183444887032   0.140745087290567   0.740771675674782
   0.427183444887032   0.640745087290567   0.740771675674782
   0.927183444887032   0.640745087290567   0.740771675674782
   0.427183444887032   0.140745087290567   0.990771675674782
   0.927183444887032   0.140745087290567   0.990771675674782
   0.427183444887032   0.640745087290567   0.990771675674782
   0.927183444887032   0.640745087290567   0.990771675674782
   0.322816431162996   0.390745037593743   0.009228327669642
   0.822816431162996   0.390745037593743   0.009228327669642
   0.322816431162996   0.890745037593743   0.009228327669642
   0.822816431162996   0.890745037593743   0.009228327669642
   0.322816431162996   0.390745037593743   0.259228327669642
   0.822816431162996   0.390745037593743   0.259228327669642
   0.322816431162996   0.890745037593743   0.259228327669642
   0.822816431162996   0.890745037593743   0.259228327669642
   0.322816431162996   0.390745037593743   0.509228327669642
   0.822816431162996   0.390745037593743   0.509228327669642
   0.322816431162996   0.890745037593743   0.509228327669642
   0.822816431162996   0.890745037593743   0.509228327669642
   0.322816431162996   0.390745037593743   0.759228327669642
   0.822816431162996   0.390745037593743   0.759228327669642
   0.322816431162996   0.890745037593743   0.759228327669642
   0.822816431162996   0.890745037593743   0.759228327669642
   0.177183450233161   0.036378101480891   0.009228327410102
   0.677183450233161   0.036378101480891   0.009228327410102
   0.177183450233161   0.536378101480891   0.009228327410102
   0.677183450233161   0.536378101480891   0.009228327410102
   0.177183450233161   0.036378101480891   0.259228327410102
   0.677183450233161   0.036378101480891   0.259228327410102
   0.177183450233161   0.536378101480891   0.259228327410102
   0.677183450233161   0.536378101480891   0.259228327410102
   0.177183450233161   0.036378101480891   0.509228327410102
   0.677183450233161   0.036378101480891   0.509228327410102
   0.177183450233161   0.536378101480891   0.509228327410102
   0.677183450233161   0.536378101480891   0.509228327410102
   0.177183450233161   0.036378101480891   0.759228327410102
   0.677183450233161   0.036378101480891   0.759228327410102
   0.177183450233161   0.536378101480891   0.759228327410102
   0.677183450233161   0.536378101480891   0.759228327410102
