 N  C  H                                
   1.0000000000000000     
    22.0000000000000000    0.0000000000000000    0.0000000000000000
     0.0000000000000000   22.0000000000000000    0.0000000000000000
     0.0000000000000000    0.0000000000000000   22.0000000000000000
   N    C    H 
     2     1     2
Direct
  0.1975706714767895  0.2519074317385588  0.2242683900989277
  0.2029674356290556  0.1995904011126086  0.3256358750233233
  0.2018199008693955  0.2228539853688503  0.2782191247194348
  0.1852425135616755  0.2253749053502148  0.1887173148244230
  0.2328831148266914  0.2796887309752094  0.2142156589702608

  0.00000000E+00  0.00000000E+00  0.00000000E+00
  0.00000000E+00  0.00000000E+00  0.00000000E+00
  0.00000000E+00  0.00000000E+00  0.00000000E+00
  0.00000000E+00  0.00000000E+00  0.00000000E+00
  0.00000000E+00  0.00000000E+00  0.00000000E+00
