H C N
        1.0000000000
  -6.952650200000000   6.952650200000000   6.952650200000000
   6.952650200000000  -6.952650200000000   6.952650200000000
   6.952650200000000   6.952650200000000  -6.952650200000000
   96   48   32
 Direct
   0.045890240821047   0.168233412904643   0.259365045285022
   0.545890240821048   0.168233412904643   0.259365045285022
   0.045890240821047   0.668233412904643   0.259365045285022
   0.545890240821048   0.668233412904643   0.259365045285022
   0.045890240821047   0.168233412904643   0.759365045285022
   0.545890240821048   0.168233412904643   0.759365045285022
   0.045890240821047   0.668233412904643   0.759365045285022
   0.545890240821048   0.668233412904643   0.759365045285022
   0.259365045285022   0.045890240821047   0.168233412904643
   0.759365045285022   0.045890240821047   0.168233412904643
   0.259365045285022   0.545890240821048   0.168233412904643
   0.759365045285022   0.545890240821048   0.168233412904643
   0.259365045285022   0.045890240821047   0.668233412904643
   0.759365045285022   0.045890240821047   0.668233412904643
   0.259365045285022   0.545890240821048   0.668233412904643
   0.759365045285022   0.545890240821048   0.668233412904643
   0.137021401414926   0.423546519406170   0.423546519406170
   0.637021401414926   0.423546519406170   0.423546519406170
   0.137021401414926   0.923546519406170   0.423546519406170
   0.637021401414926   0.923546519406170   0.423546519406170
   0.137021401414926   0.423546519406170   0.923546519406170
   0.637021401414926   0.423546519406170   0.923546519406170
   0.137021401414926   0.923546519406170   0.923546519406170
   0.637021401414926   0.923546519406170   0.923546519406170
   0.259365045285023   0.168233412904643   0.045890240821047
   0.759365045285023   0.168233412904643   0.045890240821047
   0.259365045285023   0.668233412904643   0.045890240821047
   0.759365045285023   0.668233412904643   0.045890240821047
   0.259365045285023   0.168233412904643   0.545890240821048
   0.759365045285023   0.168233412904643   0.545890240821048
   0.259365045285023   0.668233412904643   0.545890240821048
   0.759365045285023   0.668233412904643   0.545890240821048
   0.168233412904643   0.045890240821047   0.259365045285024
   0.668233412904643   0.045890240821047   0.259365045285024
   0.168233412904643   0.545890240821048   0.259365045285024
   0.668233412904643   0.545890240821048   0.259365045285024
   0.168233412904643   0.045890240821047   0.759365045285024
   0.668233412904643   0.045890240821047   0.759365045285024
   0.168233412904643   0.545890240821048   0.759365045285024
   0.668233412904643   0.545890240821048   0.759365045285024
   0.168233412904643   0.259365045285023   0.045890240821047
   0.668233412904643   0.259365045285023   0.045890240821047
   0.168233412904643   0.759365045285022   0.045890240821047
   0.668233412904643   0.759365045285022   0.045890240821047
   0.168233412904643   0.259365045285023   0.545890240821048
   0.668233412904643   0.259365045285023   0.545890240821048
   0.168233412904643   0.759365045285022   0.545890240821048
   0.668233412904643   0.759365045285022   0.545890240821048
   0.454758127194432   0.332415458636300   0.332415458636300
   0.954758127194432   0.332415458636300   0.332415458636300
   0.454758127194432   0.832415458636300   0.332415458636300
   0.954758127194432   0.832415458636300   0.332415458636300
   0.454758127194432   0.332415458636300   0.832415458636300
   0.954758127194432   0.332415458636300   0.832415458636300
   0.454758127194432   0.832415458636300   0.832415458636300
   0.954758127194432   0.832415458636300   0.832415458636300
   0.332415458636299   0.454758127194430   0.332415458636299
   0.832415458636299   0.454758127194430   0.332415458636299
   0.332415458636299   0.954758127194431   0.332415458636299
   0.832415458636299   0.954758127194431   0.332415458636299
   0.332415458636299   0.454758127194430   0.832415458636299
   0.832415458636299   0.454758127194430   0.832415458636299
   0.332415458636299   0.954758127194431   0.832415458636299
   0.832415458636299   0.954758127194431   0.832415458636299
   0.423546519406170   0.137021401414925   0.423546519406170
   0.923546519406170   0.137021401414925   0.423546519406170
   0.423546519406170   0.637021401414925   0.423546519406170
   0.923546519406170   0.637021401414925   0.423546519406170
   0.423546519406170   0.137021401414925   0.923546519406170
   0.923546519406170   0.137021401414925   0.923546519406170
   0.423546519406170   0.637021401414925   0.923546519406170
   0.923546519406170   0.637021401414925   0.923546519406170
   0.045890240821047   0.259365045285023   0.168233412904643
   0.545890240821048   0.259365045285023   0.168233412904643
   0.045890240821047   0.759365045285023   0.168233412904643
   0.545890240821048   0.759365045285023   0.168233412904643
   0.045890240821047   0.259365045285023   0.668233412904643
   0.545890240821048   0.259365045285023   0.668233412904643
   0.045890240821047   0.759365045285023   0.668233412904643
   0.545890240821048   0.759365045285023   0.668233412904643
   0.423546519406170   0.423546519406170   0.137021401414925
   0.923546519406170   0.423546519406170   0.137021401414925
   0.423546519406170   0.923546519406170   0.137021401414925
   0.923546519406170   0.923546519406170   0.137021401414925
   0.423546519406170   0.423546519406170   0.637021401414925
   0.923546519406170   0.423546519406170   0.637021401414925
   0.423546519406170   0.923546519406170   0.637021401414925
   0.923546519406170   0.923546519406170   0.637021401414925
   0.332415458636299   0.332415458636299   0.454758127194430
   0.832415458636299   0.332415458636299   0.454758127194430
   0.332415458636299   0.832415458636299   0.454758127194430
   0.832415458636299   0.832415458636299   0.454758127194430
   0.332415458636299   0.332415458636299   0.954758127194431
   0.832415458636299   0.332415458636299   0.954758127194431
   0.332415458636299   0.832415458636299   0.954758127194431
   0.832415458636299   0.832415458636299   0.954758127194431
   0.045890220040406   0.168931076791083   0.168931076791084
   0.545890220040406   0.168931076791083   0.168931076791084
   0.045890220040406   0.668931076791083   0.168931076791084
   0.545890220040406   0.668931076791083   0.168931076791084
   0.045890220040406   0.168931076791083   0.668931076791084
   0.545890220040406   0.168931076791083   0.668931076791084
   0.045890220040406   0.668931076791083   0.668931076791084
   0.545890220040406   0.668931076791083   0.668931076791084
   0.168931076791085   0.045890220040405   0.168931076791081
   0.668931076791085   0.045890220040405   0.168931076791081
   0.168931076791085   0.545890220040405   0.168931076791081
   0.668931076791085   0.545890220040405   0.168931076791081
   0.168931076791085   0.045890220040405   0.668931076791081
   0.668931076791085   0.045890220040405   0.668931076791081
   0.168931076791085   0.545890220040405   0.668931076791081
   0.668931076791085   0.545890220040405   0.668931076791081
   0.045890054959067   0.422849264307830   0.422849264307829
   0.545890054959068   0.422849264307830   0.422849264307829
   0.045890054959067   0.922849264307830   0.422849264307829
   0.545890054959068   0.922849264307830   0.422849264307829
   0.045890054959067   0.422849264307830   0.922849264307829
   0.545890054959068   0.422849264307830   0.922849264307829
   0.045890054959067   0.922849264307830   0.922849264307829
   0.545890054959068   0.922849264307830   0.922849264307829
   0.168931076791083   0.168931076791083   0.045890220040405
   0.668931076791083   0.168931076791083   0.045890220040405
   0.168931076791083   0.668931076791083   0.045890220040405
   0.668931076791083   0.668931076791083   0.045890220040405
   0.168931076791083   0.168931076791083   0.545890220040405
   0.668931076791083   0.168931076791083   0.545890220040405
   0.168931076791083   0.668931076791083   0.545890220040405
   0.668931076791083   0.668931076791083   0.545890220040405
   0.422849264307831   0.045890054959070   0.422849264307831
   0.922849264307831   0.045890054959070   0.422849264307831
   0.422849264307831   0.545890054959070   0.422849264307831
   0.922849264307831   0.545890054959070   0.422849264307831
   0.422849264307831   0.045890054959070   0.922849264307831
   0.922849264307831   0.045890054959070   0.922849264307831
   0.422849264307831   0.545890054959070   0.922849264307831
   0.922849264307831   0.545890054959070   0.922849264307831
   0.422849264307831   0.422849264307831   0.045890054959071
   0.922849264307831   0.422849264307831   0.045890054959071
   0.422849264307831   0.922849264307831   0.045890054959071
   0.922849264307831   0.922849264307831   0.045890054959071
   0.422849264307831   0.422849264307831   0.545890054959071
   0.922849264307831   0.422849264307831   0.545890054959071
   0.422849264307831   0.922849264307831   0.545890054959071
   0.922849264307831   0.922849264307831   0.545890054959071
   0.172171572819246   0.172171572819247   0.172171572819247
   0.672171572819247   0.172171572819247   0.172171572819247
   0.172171572819246   0.672171572819247   0.172171572819247
   0.672171572819247   0.672171572819247   0.172171572819247
   0.172171572819246   0.172171572819247   0.672171572819247
   0.672171572819247   0.172171572819247   0.672171572819247
   0.172171572819246   0.672171572819247   0.672171572819247
   0.672171572819247   0.672171572819247   0.672171572819247
   0.045890214668600   0.419608849146606   0.045890214668601
   0.545890214668601   0.419608849146606   0.045890214668601
   0.045890214668600   0.919608849146606   0.045890214668601
   0.545890214668601   0.919608849146606   0.045890214668601
   0.045890214668600   0.419608849146606   0.545890214668601
   0.545890214668601   0.419608849146606   0.545890214668601
   0.045890214668600   0.919608849146606   0.545890214668601
   0.545890214668601   0.919608849146606   0.545890214668601
   0.045890214668601   0.045890214668600   0.419608849146606
   0.545890214668601   0.045890214668600   0.419608849146606
   0.045890214668601   0.545890214668601   0.419608849146606
   0.545890214668601   0.545890214668601   0.419608849146606
   0.045890214668601   0.045890214668600   0.919608849146606
   0.545890214668601   0.045890214668600   0.919608849146606
   0.045890214668601   0.545890214668601   0.919608849146606
   0.545890214668601   0.545890214668601   0.919608849146606
   0.419608849146606   0.045890214668600   0.045890214668600
   0.919608849146605   0.045890214668600   0.045890214668600
   0.419608849146606   0.545890214668601   0.045890214668600
   0.919608849146605   0.545890214668601   0.045890214668600
   0.419608849146606   0.045890214668600   0.545890214668600
   0.919608849146605   0.045890214668600   0.545890214668600
   0.419608849146606   0.545890214668601   0.545890214668600
   0.919608849146605   0.545890214668601   0.545890214668600
