 C  H  O 
 1.0000000000000000
    20.0000000000000000    0.0000000000000000    0.0000000000000000
     0.0000000000000000   20.0000000000000000    0.0000000000000000
     0.0000000000000000    0.0000000000000000   20.0000000000000000
 C   H   O  
   2   2   4
Cartesian
  5.8921564995695883  5.8205280186901600  5.3360554820230961
  5.1595210003587635  6.6417994813209233  6.4360145179081982
  4.7981865416774596  4.3998626893868531  5.9472432147895660
  6.2534909583608860  8.0624648106202770  5.8248267852448743
  6.7405018810210189  6.3104682447442748  4.6237570923764872
  4.3111756189698296  6.1518592552693603  7.1483129076287355
  5.4895603793357610  4.5356803292153076  5.2640959195339407
  5.5621171207066977  7.9266471707528465  6.5079740804951109
