 C  N  O  H 
 1.0000000000000000
    22.0000000000000000    0.0000000000000000    0.0000000000000000
     0.0000000000000000   22.0000000000000000    0.0000000000000000
     0.0000000000000000    0.0000000000000000   22.0000000000000000
 C   N   O   H  
   3   1   2   7
Cartesian
  5.0100674288499647  7.2188111658786598  6.1295138125018100
  7.0139709325349058  5.8820000727896851  6.0538540156787537
  7.3976309152427806  4.4204591005604605  5.8804701372257995
  3.6349486904293014  7.1530061227570405  6.1034243751507171
  5.6611767987085200  8.2360058280671211  6.2981240231466460
  5.5424858368343921  5.9550799683247471  5.9758710398238799
  3.1440294095227457  8.0268351981502200  6.0050204666502092
  3.1878364061287363  6.3179181742302610  5.7588214044386152
  7.3268931320230024  6.2789914828994924  7.0199236602899395
  7.4319500186876368  6.5145096419316184  5.2700813506181756
  8.4840782900330804  4.3215840516663953  5.9303550881400264
  6.9590435446867982  3.8053233803949054  6.6677645012453217
  7.0619985963181131  4.0402658123494319  4.9143761250901896
