 C  H  O 
 1.0000000000000000
    18.6400000000000006    0.0000000000000000    0.0000000000000000
     0.0000000000000000   16.1427200000000006    0.0000000000000000
     0.0000000000000000    0.0000000000000000   16.3919999999999995
 C   H   O  
 144 288 144
Cartesian
  0.5624260594527387  1.2197196985027896  8.0661732644298567
  3.3230479201655507  7.9475232903964868  8.0661795738519633
 14.7562859683160390  6.9743779639657273  8.0661502557317970
  3.8849052089211398  6.9744247001880417  3.9681732644298555
 18.0787696535134472  1.2197532838889444  3.9681795738519638
 15.3181569138897586  7.9475673792588406  3.9681502557317962
  5.2232075196050092  3.9096951454374662  2.6027618642031758
  3.3231086673376531  2.5675127446812551  2.6027630820122596
  5.4355094756441149  1.5930784541661724  2.6027821264376705
  3.8857098005926702  1.5930802121054004  6.7007618642031757
  4.0980239639019009  3.9097059481312151  6.7007630820122586
  5.9981088795501503  2.5675295968080221  6.7007821264376703
  0.5628536802551191  6.6002944393544203  5.3339652704133238
 17.3030785698031053  5.2576464685553841  5.3339749422566847
  0.7757378157851550  4.2837132090199113  5.3339300315374993
 17.8654064753950514  4.2837669991356702  1.2359652704133244
 18.0782857049345935  6.6003451514341132  1.2359749422566846
  1.3380659340382106  5.2576944709390077  1.2359300315375004
  0.5624260594527387  1.2197196985027896 16.2621732644298547
  3.3230479201655507  7.9475232903964868 16.2621795738519630
 14.7562859683160390  6.9743779639657273 16.2621502557317967
  3.8849052089211398  6.9744247001880417 12.1641732644298557
 18.0787696535134472  1.2197532838889444 12.1641795738519640
 15.3181569138897586  7.9475673792588406 12.1641502557317960
  5.2232075196050092  3.9096951454374662 10.7987618642031755
  3.3231086673376531  2.5675127446812551 10.7987630820122593
  5.4355094756441149  1.5930784541661724 10.7987821264376702
  3.8857098005926702  1.5930802121054004 14.8967618642031745
  4.0980239639019009  3.9097059481312151 14.8967630820122583
  5.9981088795501503  2.5675295968080221 14.8967821264376710
  0.5628536802551191  6.6002944393544203 13.5299652704133244
 17.3030785698031053  5.2576464685553841 13.5299749422566844
  0.7757378157851550  4.2837132090199113 13.5299300315375000
 17.8654064753950514  4.2837669991356702  9.4319652704133237
 18.0782857049345935  6.6003451514341132  9.4319749422566836
  1.3380659340382106  5.2576944709390077  9.4319300315375010
  9.8824260594527384  1.2197196985027896  8.0661732644298567
 12.6430479201655501  7.9475232903964868  8.0661795738519633
  5.4362859683160369  6.9743779639657273  8.0661502557317970
 13.2049052089211401  6.9744247001880417  3.9681732644298555
  8.7587696535134452  1.2197532838889444  3.9681795738519638
  5.9981569138897566  7.9475673792588406  3.9681502557317962
 14.5432075196050086  3.9096951454374662  2.6027618642031758
 12.6431086673376551  2.5675127446812551  2.6027630820122596
 14.7555094756441143  1.5930784541661724  2.6027821264376705
 13.2057098005926701  1.5930802121054004  6.7007618642031757
 13.4180239639019039  3.9097059481312151  6.7007630820122586
 15.3181088795501523  2.5675295968080221  6.7007821264376703
  9.8828536802551188  6.6002944393544203  5.3339652704133238
  7.9830785698031050  5.2576464685553841  5.3339749422566847
 10.0957378157851547  4.2837132090199113  5.3339300315374993
  8.5454064753950494  4.2837669991356702  1.2359652704133244
  8.7582857049345915  6.6003451514341132  1.2359749422566846
 10.6580659340382109  5.2576944709390077  1.2359300315375004
  9.8824260594527384  1.2197196985027896 16.2621732644298547
 12.6430479201655501  7.9475232903964868 16.2621795738519630
  5.4362859683160369  6.9743779639657273 16.2621502557317967
 13.2049052089211401  6.9744247001880417 12.1641732644298557
  8.7587696535134452  1.2197532838889444 12.1641795738519640
  5.9981569138897566  7.9475673792588406 12.1641502557317960
 14.5432075196050086  3.9096951454374662 10.7987618642031755
 12.6431086673376551  2.5675127446812551 10.7987630820122593
 14.7555094756441143  1.5930784541661724 10.7987821264376702
 13.2057098005926701  1.5930802121054004 14.8967618642031745
 13.4180239639019039  3.9097059481312151 14.8967630820122583
 15.3181088795501523  2.5675295968080221 14.8967821264376710
  9.8828536802551188  6.6002944393544203 13.5299652704133244
  7.9830785698031050  5.2576464685553841 13.5299749422566844
 10.0957378157851547  4.2837132090199113 13.5299300315375000
  8.5454064753950494  4.2837669991356702  9.4319652704133237
  8.7582857049345915  6.6003451514341132  9.4319749422566836
 10.6580659340382109  5.2576944709390077  9.4319300315375010
  5.2224260594527401  9.2910796985027897  8.0661732644298567
  7.9830479201655500 16.0188832903964880  8.0661795738519633
  0.7762859683160359 15.0457379639657276  8.0661502557317970
  8.5449052089211399 15.0457847001880420  3.9681732644298555
  4.0987696535134450  9.2911132838889454  3.9681795738519638
  1.3381569138897571 16.0189273792588409  3.9681502557317962
  9.8832075196050084 11.9810551454374661  2.6027618642031758
  7.9831086673376541 10.6388727446812563  2.6027630820122596
 10.0955094756441142  9.6644384541661736  2.6027821264376705
  8.5457098005926699  9.6644402121054007  6.7007618642031757
  8.7580239639019037 11.9810659481312154  6.7007630820122586
 10.6581088795501522 10.6388895968080224  6.7007821264376703
  5.2228536802551195 14.6716544393544197  5.3339652704133238
  3.3230785698031045 13.3290064685553844  5.3339749422566847
  5.4357378157851546 12.3550732090199116  5.3339300315374993
  3.8854064753950497 12.3551269991356705  1.2359652704133244
  4.0982857049345913 14.6717051514341144  1.2359749422566846
  5.9980659340382108 13.3290544709390080  1.2359300315375004
  5.2224260594527401  9.2910796985027897 16.2621732644298547
  7.9830479201655500 16.0188832903964880 16.2621795738519630
  0.7762859683160359 15.0457379639657276 16.2621502557317967
  8.5449052089211399 15.0457847001880420 12.1641732644298557
  4.0987696535134450  9.2911132838889454 12.1641795738519640
  1.3381569138897571 16.0189273792588409 12.1641502557317960
  9.8832075196050084 11.9810551454374661 10.7987618642031755
  7.9831086673376541 10.6388727446812563 10.7987630820122593
 10.0955094756441142  9.6644384541661736 10.7987821264376702
  8.5457098005926699  9.6644402121054007 14.8967618642031745
  8.7580239639019037 11.9810659481312154 14.8967630820122583
 10.6581088795501522 10.6388895968080224 14.8967821264376710
  5.2228536802551195 14.6716544393544197 13.5299652704133244
  3.3230785698031045 13.3290064685553844 13.5299749422566844
  5.4357378157851546 12.3550732090199116 13.5299300315375000
  3.8854064753950497 12.3551269991356705  9.4319652704133237
  4.0982857049345913 14.6717051514341144  9.4319749422566836
  5.9980659340382108 13.3290544709390080  9.4319300315375010
 14.5424260594527386  9.2910796985027897  8.0661732644298567
 17.3030479201655503 16.0188832903964880  8.0661795738519633
 10.0962859683160353 15.0457379639657276  8.0661502557317970
 17.8649052089211402 15.0457847001880420  3.9681732644298555
 13.4187696535134471  9.2911132838889454  3.9681795738519638
 10.6581569138897567 16.0189273792588409  3.9681502557317962
  0.5632075196050094 11.9810551454374661  2.6027618642031758
 17.3031086673376535 10.6388727446812563  2.6027630820122596
  0.7755094756441151  9.6644384541661736  2.6027821264376705
 17.8657098005926684  9.6644402121054007  6.7007618642031757
 18.0780239639019022 11.9810659481312154  6.7007630820122586
  1.3381088795501508 10.6388895968080224  6.7007821264376703
 14.5428536802551189 14.6716544393544197  5.3339652704133238
 12.6430785698031070 13.3290064685553844  5.3339749422566847
 14.7557378157851549 12.3550732090199116  5.3339300315374993
 13.2054064753950495 12.3551269991356705  1.2359652704133244
 13.4182857049345934 14.6717051514341144  1.2359749422566846
 15.3180659340382110 13.3290544709390080  1.2359300315375004
 14.5424260594527386  9.2910796985027897 16.2621732644298547
 17.3030479201655503 16.0188832903964880 16.2621795738519630
 10.0962859683160353 15.0457379639657276 16.2621502557317967
 17.8649052089211402 15.0457847001880420 12.1641732644298557
 13.4187696535134471  9.2911132838889454 12.1641795738519640
 10.6581569138897567 16.0189273792588409 12.1641502557317960
  0.5632075196050094 11.9810551454374661 10.7987618642031755
 17.3031086673376535 10.6388727446812563 10.7987630820122593
  0.7755094756441151  9.6644384541661736 10.7987821264376702
 17.8657098005926684  9.6644402121054007 14.8967618642031745
 18.0780239639019022 11.9810659481312154 14.8967630820122583
  1.3381088795501508 10.6388895968080224 14.8967821264376710
 14.5428536802551189 14.6716544393544197 13.5299652704133244
 12.6430785698031070 13.3290064685553844 13.5299749422566844
 14.7557378157851549 12.3550732090199116 13.5299300315375000
 13.2054064753950495 12.3551269991356705  9.4319652704133237
 13.4182857049345934 14.6717051514341144  9.4319749422566836
 15.3180659340382110 13.3290544709390080  9.4319300315375010
  0.5688928742777678  1.2315207615810537  6.9599525086830596
  3.3096002554678843  7.9472727063716171  6.9599611187059462
 14.7632370759902027  6.9628510472533032  6.9599345254313532
  3.8779186000145875  6.9629237404830144  2.8619525086831170
 18.0722628332089421  1.2315245998212954  2.8619611187059455
 15.3316150664239448  7.9473109993707451  2.8619345254313524
  5.2294020076438539  3.9210037883416593  1.4966467267132086
  3.3102332674730044  2.5672222886713154  1.4966474718230371
  5.4422200619686150  1.5820411592490675  1.4966675252075070
  3.8790134765020952  1.5820613044969516  5.5946467267132078
  4.0918378061519958  3.9210016039743314  5.5946474718230368
  6.0110227466665496  2.5672367037047601  5.5946675252075062
  0.5692471694758401  6.6119436402586738  4.2278614239017269
 17.2898079007279541  5.2574510950054840  4.2278645331739311
  0.7825759420627899  4.2723230693959362  4.2278204261480363
 17.8585147201341705  4.2724054723791927  0.1298614239017271
 18.0718195687866050  6.6119355793621146  0.1298645331739321
  1.3513491434883800  5.2574675473054739  0.1298204261480362
  0.9860985579192433  2.1349469564845656  0.2909177296209718
  2.3186024952734217  7.8568092923241668  0.2909191769380484
 15.3370733356488849  6.1498644759505421  0.2908920238171644
  3.3041317203539955  6.1498997775037409  4.3889177296209709
 17.6551075363729453  2.1349858864291096  4.3889191769380478
 16.3225999375962907  7.8568473072583176  4.3888920238171645
  5.6474637359256290  4.8248717028591930  3.0230479618914075
  2.3184198838394878  2.4773536095087780  3.0230536434339688
  6.0159566984134569  0.7680779128776675  3.0230573267125100
  3.3052720789079637  0.7680751250081009  7.1210479618914073
  3.6737596422841987  4.8248718740410315  7.1210536434339691
  7.0028036313134754  2.4773476253952391  7.1210573267125099
  0.9869382582502257  7.5154177987275759  5.7547194360821319
 16.2985403525433306  5.1673357953950010  5.7547031733565515
  1.3562175573816717  3.4589027415421332  5.7546614748113321
 17.2849290053906053  3.4589371542724212  1.6567194360821327
 17.6542279021306214  7.5154564520981966  1.6567031733565523
  2.3426123365324503  5.1673893004791349  1.6566614748113324
  0.5688928742777678  1.2315207615810537 15.1559525086830593
  3.3096002554678843  7.9472727063716171 15.1559611187059460
 14.7632370759902027  6.9628510472533032 15.1559345254313520
  3.8779186000145875  6.9629237404830144 11.0579525086831172
 18.0722628332089421  1.2315245998212954 11.0579611187059452
 15.3316150664239448  7.9473109993707451 11.0579345254313530
  5.2294020076438539  3.9210037883416593  9.6926467267132086
  3.3102332674730044  2.5672222886713154  9.6926474718230367
  5.4422200619686150  1.5820411592490675  9.6926675252075061
  3.8790134765020952  1.5820613044969516 13.7906467267132076
  4.0918378061519958  3.9210016039743314 13.7906474718230356
  6.0110227466665496  2.5672367037047601 13.7906675252075068
  0.5692471694758401  6.6119436402586738 12.4238614239017267
 17.2898079007279541  5.2574510950054840 12.4238645331739299
  0.7825759420627899  4.2723230693959362 12.4238204261480369
 17.8585147201341705  4.2724054723791927  8.3258614239017277
 18.0718195687866050  6.6119355793621146  8.3258645331739309
  1.3513491434883800  5.2574675473054739  8.3258204261480362
  0.9860985579192433  2.1349469564845656  8.4869177296209717
  2.3186024952734217  7.8568092923241668  8.4869191769380485
 15.3370733356488849  6.1498644759505421  8.4868920238171643
  3.3041317203539955  6.1498997775037409 12.5849177296209707
 17.6551075363729453  2.1349858864291096 12.5849191769380475
 16.3225999375962907  7.8568473072583176 12.5848920238171633
  5.6474637359256290  4.8248717028591930 11.2190479618914072
  2.3184198838394878  2.4773536095087780 11.2190536434339680
  6.0159566984134569  0.7680779128776675 11.2190573267125071
  3.3052720789079637  0.7680751250081009 15.3170479618914079
  3.6737596422841987  4.8248718740410315 15.3170536434339688
  7.0028036313134754  2.4773476253952391 15.3170573267125096
  0.9869382582502257  7.5154177987275759 13.9507194360821316
 16.2985403525433306  5.1673357953950010 13.9507031733565512
  1.3562175573816717  3.4589027415421332 13.9506614748113318
 17.2849290053906053  3.4589371542724212  9.8527194360821326
 17.6542279021306214  7.5154564520981966  9.8527031733565522
  2.3426123365324503  5.1673893004791349  9.8526614748113328
  9.8888928742777704  1.2315207615810537  6.9599525086830596
 12.6296002554678868  7.9472727063716171  6.9599611187059462
  5.4432370759902007  6.9628510472533032  6.9599345254313532
 13.1979186000145887  6.9629237404830144  2.8619525086831170
  8.7522628332089383  1.2315245998212954  2.8619611187059455
  6.0116150664239418  7.9473109993707451  2.8619345254313524
 14.5494020076438524  3.9210037883416593  1.4966467267132086
 12.6302332674730042  2.5672222886713154  1.4966474718230371
 14.7622200619686161  1.5820411592490675  1.4966675252075070
 13.1990134765020954  1.5820613044969516  5.5946467267132078
 13.4118378061519969  3.9210016039743314  5.5946474718230368
 15.3310227466665481  2.5672367037047601  5.5946675252075062
  9.8892471694758406  6.6119436402586738  4.2278614239017269
  7.9698079007279512  5.2574510950054840  4.2278645331739311
 10.1025759420627903  4.2723230693959362  4.2278204261480363
  8.5385147201341685  4.2724054723791927  0.1298614239017271
  8.7518195687866047  6.6119355793621146  0.1298645331739321
 10.6713491434883796  5.2574675473054739  0.1298204261480362
 10.3060985579192437  2.1349469564845656  0.2909177296209718
 11.6386024952734211  7.8568092923241668  0.2909191769380484
  6.0170733356488828  6.1498644759505421  0.2908920238171644
 12.6241317203539953  6.1498997775037409  4.3889177296209709
  8.3351075363729432  2.1349858864291096  4.3889191769380478
  7.0025999375962913  7.8568473072583176  4.3888920238171645
 14.9674637359256284  4.8248717028591930  3.0230479618914075
 11.6384198838394877  2.4773536095087780  3.0230536434339688
 15.3359566984134599  0.7680779128776675  3.0230573267125100
 12.6252720789079635  0.7680751250081009  7.1210479618914073
 12.9937596422842017  4.8248718740410315  7.1210536434339691
 16.3228036313134766  2.4773476253952391  7.1210573267125099
 10.3069382582502254  7.5154177987275759  5.7547194360821319
  6.9785403525433267  5.1673357953950010  5.7547031733565515
 10.6762175573816744  3.4589027415421332  5.7546614748113321
  7.9649290053906059  3.4589371542724212  1.6567194360821327
  8.3342279021306194  7.5154564520981966  1.6567031733565523
 11.6626123365324510  5.1673893004791349  1.6566614748113324
  9.8888928742777704  1.2315207615810537 15.1559525086830593
 12.6296002554678868  7.9472727063716171 15.1559611187059460
  5.4432370759902007  6.9628510472533032 15.1559345254313520
 13.1979186000145887  6.9629237404830144 11.0579525086831172
  8.7522628332089383  1.2315245998212954 11.0579611187059452
  6.0116150664239418  7.9473109993707451 11.0579345254313530
 14.5494020076438524  3.9210037883416593  9.6926467267132086
 12.6302332674730042  2.5672222886713154  9.6926474718230367
 14.7622200619686161  1.5820411592490675  9.6926675252075061
 13.1990134765020954  1.5820613044969516 13.7906467267132076
 13.4118378061519969  3.9210016039743314 13.7906474718230356
 15.3310227466665481  2.5672367037047601 13.7906675252075068
  9.8892471694758406  6.6119436402586738 12.4238614239017267
  7.9698079007279512  5.2574510950054840 12.4238645331739299
 10.1025759420627903  4.2723230693959362 12.4238204261480369
  8.5385147201341685  4.2724054723791927  8.3258614239017277
  8.7518195687866047  6.6119355793621146  8.3258645331739309
 10.6713491434883796  5.2574675473054739  8.3258204261480362
 10.3060985579192437  2.1349469564845656  8.4869177296209717
 11.6386024952734211  7.8568092923241668  8.4869191769380485
  6.0170733356488828  6.1498644759505421  8.4868920238171643
 12.6241317203539953  6.1498997775037409 12.5849177296209707
  8.3351075363729432  2.1349858864291096 12.5849191769380475
  7.0025999375962913  7.8568473072583176 12.5848920238171633
 14.9674637359256284  4.8248717028591930 11.2190479618914072
 11.6384198838394877  2.4773536095087780 11.2190536434339680
 15.3359566984134599  0.7680779128776675 11.2190573267125071
 12.6252720789079635  0.7680751250081009 15.3170479618914079
 12.9937596422842017  4.8248718740410315 15.3170536434339688
 16.3228036313134766  2.4773476253952391 15.3170573267125096
 10.3069382582502254  7.5154177987275759 13.9507194360821316
  6.9785403525433267  5.1673357953950010 13.9507031733565512
 10.6762175573816744  3.4589027415421332 13.9506614748113318
  7.9649290053906059  3.4589371542724212  9.8527194360821326
  8.3342279021306194  7.5154564520981966  9.8527031733565522
 11.6626123365324510  5.1673893004791349  9.8526614748113328
  5.2288928742777676  9.3028807615810543  6.9599525086830596
  7.9696002554678849 16.0186327063716192  6.9599611187059462
  0.7832370759902010 15.0342110472533044  6.9599345254313532
  8.5379186000145886 15.0342837404830156  2.8619525086831170
  4.0922628332089390  9.3028845998212955  2.8619611187059455
  1.3516150664239417 16.0186709993707446  2.8619345254313524
  9.8894020076438522 11.9923637883416596  1.4966467267132086
  7.9702332674730041 10.6385822886713157  1.4966474718230371
 10.1022200619686160  9.6534011592490678  1.4966675252075070
  8.5390134765020971  9.6534213044969519  5.5946467267132078
  8.7518378061519950 11.9923616039743308  5.5946474718230368
 10.6710227466665479 10.6385967037047600  5.5946675252075062
  5.2292471694758405 14.6833036402586750  4.2278614239017269
  3.3098079007279506 13.3288110950054843  4.2278645331739311
  5.4425759420627902 12.3436830693959365  4.2278204261480363
  3.8785147201341692 12.3437654723791930  0.1298614239017271
  4.0918195687866046 14.6832955793621149  0.1298645331739321
  6.0113491434883803 13.3288275473054743  0.1298204261480362
  5.6460985579192444 10.2063069564845659  0.2909177296209718
  6.9786024952734227 15.9281692923241671  0.2909191769380484
  1.3570733356488818 14.2212244759505424  0.2908920238171644
  7.9641317203539961 14.2212597775037413  4.3889177296209709
  3.6751075363729440 10.2063458864291103  4.3889191769380478
  2.3425999375962898 15.9282073072583188  4.3888920238171645
 10.3074637359256283 12.8962317028591933  3.0230479618914075
  6.9784198838394875 10.5487136095087788  3.0230536434339688
 10.6759566984134597  8.8394379128776688  3.0230573267125100
  7.9652720789079634  8.8394351250081016  7.1210479618914073
  8.3337596422841997 12.8962318740410318  7.1210536434339691
 11.6628036313134746 10.5487076253952399  7.1210573267125099
  5.6469382582502270 15.5867777987275762  5.7547194360821319
  2.3185403525433270 13.2386957953950013  5.7547031733565515
  6.0162175573816716 11.5302627415421330  5.7546614748113321
  3.3049290053906057 11.5302971542724215  1.6567194360821327
  3.6742279021306197 15.5868164520981978  1.6567031733565523
  7.0026123365324517 13.2387493004791352  1.6566614748113324
  5.2288928742777676  9.3028807615810543 15.1559525086830593
  7.9696002554678849 16.0186327063716192 15.1559611187059460
  0.7832370759902010 15.0342110472533044 15.1559345254313520
  8.5379186000145886 15.0342837404830156 11.0579525086831172
  4.0922628332089390  9.3028845998212955 11.0579611187059452
  1.3516150664239417 16.0186709993707446 11.0579345254313530
  9.8894020076438522 11.9923637883416596  9.6926467267132086
  7.9702332674730041 10.6385822886713157  9.6926474718230367
 10.1022200619686160  9.6534011592490678  9.6926675252075061
  8.5390134765020971  9.6534213044969519 13.7906467267132076
  8.7518378061519950 11.9923616039743308 13.7906474718230356
 10.6710227466665479 10.6385967037047600 13.7906675252075068
  5.2292471694758405 14.6833036402586750 12.4238614239017267
  3.3098079007279506 13.3288110950054843 12.4238645331739299
  5.4425759420627902 12.3436830693959365 12.4238204261480369
  3.8785147201341692 12.3437654723791930  8.3258614239017277
  4.0918195687866046 14.6832955793621149  8.3258645331739309
  6.0113491434883803 13.3288275473054743  8.3258204261480362
  5.6460985579192444 10.2063069564845659  8.4869177296209717
  6.9786024952734227 15.9281692923241671  8.4869191769380485
  1.3570733356488818 14.2212244759505424  8.4868920238171643
  7.9641317203539961 14.2212597775037413 12.5849177296209707
  3.6751075363729440 10.2063458864291103 12.5849191769380475
  2.3425999375962898 15.9282073072583188 12.5848920238171633
 10.3074637359256283 12.8962317028591933 11.2190479618914072
  6.9784198838394875 10.5487136095087788 11.2190536434339680
 10.6759566984134597  8.8394379128776688 11.2190573267125071
  7.9652720789079634  8.8394351250081016 15.3170479618914079
  8.3337596422841997 12.8962318740410318 15.3170536434339688
 11.6628036313134746 10.5487076253952399 15.3170573267125096
  5.6469382582502270 15.5867777987275762 13.9507194360821316
  2.3185403525433270 13.2386957953950013 13.9507031733565512
  6.0162175573816716 11.5302627415421330 13.9506614748113318
  3.3049290053906057 11.5302971542724215  9.8527194360821326
  3.6742279021306197 15.5868164520981978  9.8527031733565522
  7.0026123365324517 13.2387493004791352  9.8526614748113328
 14.5488928742777706  9.3028807615810543  6.9599525086830596
 17.2896002554678851 16.0186327063716192  6.9599611187059462
 10.1032370759902008 15.0342110472533044  6.9599345254313532
 17.8579186000145889 15.0342837404830156  2.8619525086831170
 13.4122628332089384  9.3028845998212955  2.8619611187059455
 10.6716150664239446 16.0186709993707446  2.8619345254313524
  0.5694020076438538 11.9923637883416596  1.4966467267132086
 17.2902332674730062 10.6385822886713157  1.4966474718230371
  0.7822200619686187  9.6534011592490678  1.4966675252075070
 17.8590134765020991  9.6534213044969519  5.5946467267132078
 18.0718378061520006 11.9923616039743308  5.5946474718230368
  1.3510227466665496 10.6385967037047600  5.5946675252075062
 14.5492471694758407 14.6833036402586750  4.2278614239017269
 12.6298079007279505 13.3288110950054843  4.2278645331739311
 14.7625759420627904 12.3436830693959365  4.2278204261480363
 13.1985147201341686 12.3437654723791930  0.1298614239017271
 13.4118195687866066 14.6832955793621149  0.1298645331739321
 15.3313491434883797 13.3288275473054743  0.1298204261480362
 14.9660985579192456 10.2063069564845659  0.2909177296209718
 16.2986024952734212 15.9281692923241671  0.2909191769380484
 10.6770733356488812 14.2212244759505424  0.2908920238171644
 17.2841317203539973 14.2212597775037413  4.3889177296209709
 12.9951075363729434 10.2063458864291103  4.3889191769380478
 11.6625999375962905 15.9282073072583188  4.3888920238171645
  0.9874637359256321 12.8962317028591933  3.0230479618914075
 16.2984198838394896 10.5487136095087788  3.0230536434339688
  1.3559566984134621  8.8394379128776688  3.0230573267125100
 17.2852720789079655  8.8394351250081016  7.1210479618914073
 17.6537596422842000 12.8962318740410318  7.1210536434339691
  2.3428036313134752 10.5487076253952399  7.1210573267125099
 14.9669382582502255 15.5867777987275762  5.7547194360821319
 11.6385403525433269 13.2386957953950013  5.7547031733565515
 15.3362175573816746 11.5302627415421330  5.7546614748113321
 12.6249290053906051 11.5302971542724215  1.6567194360821327
 12.9942279021306195 15.5868164520981978  1.6567031733565523
 16.3226123365324547 13.2387493004791352  1.6566614748113324
 14.5488928742777706  9.3028807615810543 15.1559525086830593
 17.2896002554678851 16.0186327063716192 15.1559611187059460
 10.1032370759902008 15.0342110472533044 15.1559345254313520
 17.8579186000145889 15.0342837404830156 11.0579525086831172
 13.4122628332089384  9.3028845998212955 11.0579611187059452
 10.6716150664239446 16.0186709993707446 11.0579345254313530
  0.5694020076438538 11.9923637883416596  9.6926467267132086
 17.2902332674730062 10.6385822886713157  9.6926474718230367
  0.7822200619686187  9.6534011592490678  9.6926675252075061
 17.8590134765020991  9.6534213044969519 13.7906467267132076
 18.0718378061520006 11.9923616039743308 13.7906474718230356
  1.3510227466665496 10.6385967037047600 13.7906675252075068
 14.5492471694758407 14.6833036402586750 12.4238614239017267
 12.6298079007279505 13.3288110950054843 12.4238645331739299
 14.7625759420627904 12.3436830693959365 12.4238204261480369
 13.1985147201341686 12.3437654723791930  8.3258614239017277
 13.4118195687866066 14.6832955793621149  8.3258645331739309
 15.3313491434883797 13.3288275473054743  8.3258204261480362
 14.9660985579192456 10.2063069564845659  8.4869177296209717
 16.2986024952734212 15.9281692923241671  8.4869191769380485
 10.6770733356488812 14.2212244759505424  8.4868920238171643
 17.2841317203539973 14.2212597775037413 12.5849177296209707
 12.9951075363729434 10.2063458864291103 12.5849191769380475
 11.6625999375962905 15.9282073072583188 12.5848920238171633
  0.9874637359256321 12.8962317028591933 11.2190479618914072
 16.2984198838394896 10.5487136095087788 11.2190536434339680
  1.3559566984134621  8.8394379128776688 11.2190573267125071
 17.2852720789079655  8.8394351250081016 15.3170479618914079
 17.6537596422842000 12.8962318740410318 15.3170536434339688
  2.3428036313134752 10.5487076253952399 15.3170573267125096
 14.9669382582502255 15.5867777987275762 13.9507194360821316
 11.6385403525433269 13.2386957953950013 13.9507031733565512
 15.3362175573816746 11.5302627415421330 13.9506614748113318
 12.6249290053906051 11.5302971542724215  9.8527194360821326
 12.9942279021306195 15.5868164520981978  9.8527031733565522
 16.3226123365324547 13.2387493004791352  9.8526614748113328
  1.3487925296814938  0.1237926207411597  0.3405283662205120
  8.5389698468578636  1.1051150484453067  0.3406086450946157
  4.0940082955043255  6.8413307254394367  0.3405555210700758
  5.2271887534695907  6.8413746260704054  4.4385283662205115
  7.9724276011644468  0.1238347007628961  4.4386086450946154
  0.7822403197452772  1.1051780282672152  4.4385555210700751
  6.0091450856754065  2.8131038957904986  3.0731924852775707
  3.8798201913357260  3.7964733993673918  3.0732050088361409
  4.0928497652360809  1.4607497591474232  3.0731971940401812
  5.2283540825564634  1.4607336659763135  7.1711924852775688
  3.3120690054949464  2.8130991050867427  7.1712050088361403
  5.4413789899257949  3.7964718284589178  7.1711971940401815
  1.3489548908008577  5.5038793178239400  5.8040231210820705
 17.8595695257664424  6.4866168648330609  5.8041239436257399
 18.0731547841494731  4.1511297336628781  5.8040440331548417
  0.5679800482344821  4.1511906686186730  1.7060231210820713
 17.2922120260479026  5.5039244551918181  1.7061239436257400
  0.7815950299568873  6.4866976869676316  1.7060440331548419
  1.3487925296814938  0.1237926207411597  8.5365283662205123
  8.5389698468578636  1.1051150484453067  8.5366086450946153
  4.0940082955043255  6.8413307254394367  8.5365555210700759
  5.2271887534695907  6.8413746260704054 12.6345283662205112
  7.9724276011644468  0.1238347007628961 12.6346086450946160
  0.7822403197452772  1.1051780282672152 12.6345555210700748
  6.0091450856754065  2.8131038957904986 11.2691924852775713
  3.8798201913357260  3.7964733993673918 11.2692050088361402
  4.0928497652360809  1.4607497591474232 11.2691971940401814
  5.2283540825564634  1.4607336659763135 15.3671924852775703
  3.3120690054949464  2.8130991050867427 15.3672050088361392
  5.4413789899257949  3.7964718284589178 15.3671971940401804
  1.3489548908008577  5.5038793178239400 14.0000231210820694
 17.8595695257664424  6.4866168648330609 14.0001239436257396
 18.0731547841494731  4.1511297336628781 14.0000440331548415
  0.5679800482344821  4.1511906686186730  9.9020231210820704
 17.2922120260479026  5.5039244551918181  9.9021239436257389
  0.7815950299568873  6.4866976869676316  9.9020440331548407
 10.6687925296814949  0.1237926207411597  0.3405283662205120
 17.8589698468578639  1.1051150484453067  0.3406086450946157
 13.4140082955043276  6.8413307254394367  0.3405555210700758
 14.5471887534695927  6.8413746260704054  4.4385283662205115
 17.2924276011644480  0.1238347007628961  4.4386086450946154
 10.1022403197452793  1.1051780282672152  4.4385555210700751
 15.3291450856754086  2.8131038957904986  3.0731924852775707
 13.1998201913357249  3.7964733993673918  3.0732050088361409
 13.4128497652360839  1.4607497591474232  3.0731971940401812
 14.5483540825564663  1.4607336659763135  7.1711924852775688
 12.6320690054949463  2.8130991050867427  7.1712050088361403
 14.7613789899257952  3.7964718284589178  7.1711971940401815
 10.6689548908008582  5.5038793178239400  5.8040231210820705
  8.5395695257664403  6.4866168648330609  5.8041239436257399
  8.7531547841494710  4.1511297336628781  5.8040440331548417
  9.8879800482344820  4.1511906686186730  1.7060231210820713
  7.9722120260479032  5.5039244551918181  1.7061239436257400
 10.1015950299568900  6.4866976869676316  1.7060440331548419
 10.6687925296814949  0.1237926207411597  8.5365283662205123