 C  H  N  O 
 1.0000000000000000
    22.0000000000000000    0.0000000000000000    0.0000000000000000
     0.0000000000000000   22.0000000000000000    0.0000000000000000
     0.0000000000000000    0.0000000000000000   22.0000000000000000
 C   H   N   O  
   4   4   2   2
Cartesian
  5.7887077380548808  4.5837380278653397  4.0002737160705042
  7.9045753719856968  5.9803984608813048  4.0002388736833350
  7.0545068192792844  7.1672807572244910  3.9997006328650118
  5.7076073172582555  7.0415916244837122  3.9994816399271045
  7.7215003588005491  3.9019921734579119  4.0008603319619400
  4.0835348754613587  5.7242679834371186  3.9995858778667590
  7.5331285741897505  8.1329371090877558  3.9994874870752732
  5.0389171054015947  7.8906988907427795  3.9990849486402538
  5.0903792152895484  5.8048032783838703  3.9997538210213808
  7.1715283364327087  4.7542323180311232  4.0004854533333205
  9.1301923378726464  5.9638836576945247  4.0004794976043012
  5.2242519499737474  3.4998757187100851  4.0005077199508081
