 C  H  O 
 1.0000000000000000
    22.0000000000000000    0.0000000000000000    0.0000000000000000
     0.0000000000000000   22.0000000000000000    0.0000000000000000
     0.0000000000000000    0.0000000000000000   22.0000000000000000
 C   H   O  
   3   6   3
Cartesian
  4.1287098647034490  4.7714209649265475  4.8555363953309545
  6.0682990458344870  6.0939864628749154  4.8550811316205253
  4.1305887513821791  6.8525604095375083  5.9418333001498409
  7.1463635525975597  6.0377246489390588  4.9610034794931819
  3.7773301613608976  5.2221136582550081  3.9144241294312607
  3.7873821789117526  3.7473051538236910  4.9617919004504234
  3.7906360351079096  7.3514233395021114  6.8430413470211926
  3.7792670280582104  7.3674737461024034  5.0342424235738283
  5.7767719807061839  6.5854914197122625  3.9139548145889997
  5.5643337839908869  4.7495535892477534  4.8701171629473121
  5.5662310617768860  6.8510639039506360  5.9670470962583630
  3.6076565555558009  5.5155527031352385  5.9675068191411293
