 C  H  O 
        1.0000000000
  13.173898337894286   0.000000000000000   0.000000000000000
   0.000000000000000  15.728020619257006   0.000000000000000
   0.000000000000000   0.000000000000000  12.427329589480085
   64   64  128
 Direct
   0.029049727963370   0.027900726560200   0.458731208275472
   0.529049727963370   0.027900726560200   0.458731208275472
   0.029049727963370   0.527900726560200   0.458731208275472
   0.529049727963370   0.527900726560200   0.458731208275472
   0.029049727963370   0.027900726560200   0.958731208275472
   0.529049727963370   0.027900726560200   0.958731208275472
   0.029049727963370   0.527900726560200   0.958731208275472
   0.529049727963370   0.527900726560200   0.958731208275472
   0.470950269247858   0.472099273794688   0.041268795798793
   0.970950269247858   0.472099273794688   0.041268795798793
   0.470950269247858   0.972099273794688   0.041268795798793
   0.970950269247858   0.972099273794688   0.041268795798793
   0.470950269247858   0.472099273794688   0.541268795798793
   0.970950269247858   0.472099273794688   0.541268795798793
   0.470950269247858   0.972099273794688   0.541268795798793
   0.970950269247858   0.972099273794688   0.541268795798793
   0.220950249976362   0.027900719461235   0.208731210453133
   0.720950249976362   0.027900719461235   0.208731210453133
   0.220950249976362   0.527900719461235   0.208731210453133
   0.720950249976362   0.527900719461235   0.208731210453133
   0.220950249976362   0.027900719461235   0.708731210453133
   0.720950249976362   0.027900719461235   0.708731210453133
   0.220950249976362   0.527900719461235   0.708731210453133
   0.720950249976362   0.527900719461235   0.708731210453133
   0.279049730952474   0.222099274796639   0.458731199228463
   0.779049730952474   0.222099274796639   0.458731199228463
   0.279049730952474   0.722099274796639   0.458731199228463
   0.779049730952474   0.722099274796639   0.458731199228463
   0.279049730952474   0.222099274796639   0.958731199228463
   0.779049730952474   0.222099274796639   0.958731199228463
   0.279049730952474   0.722099274796639   0.958731199228463
   0.779049730952474   0.722099274796639   0.958731199228463
   0.470950246390937   0.222099279403570   0.208731212406884
   0.970950246390937   0.222099279403570   0.208731212406884
   0.470950246390937   0.722099279403570   0.208731212406884
   0.970950246390937   0.722099279403570   0.208731212406884
   0.470950246390937   0.222099279403570   0.708731212406884
   0.970950246390937   0.222099279403570   0.708731212406884
   0.470950246390937   0.722099279403570   0.708731212406884
   0.970950246390937   0.722099279403570   0.708731212406884
   0.279049749180645   0.472099279991822   0.291268788205275
   0.779049749180645   0.472099279991822   0.291268788205275
   0.279049749180645   0.972099279991822   0.291268788205275
   0.779049749180645   0.972099279991822   0.291268788205275
   0.279049749180645   0.472099279991822   0.791268788205275
   0.779049749180645   0.472099279991822   0.791268788205275
   0.279049749180645   0.972099279991822   0.791268788205275
   0.779049749180645   0.972099279991822   0.791268788205275
   0.220950267572170   0.277900723255092   0.041268802786803
   0.720950267572171   0.277900723255092   0.041268802786803
   0.220950267572170   0.777900723255092   0.041268802786803
   0.720950267572171   0.777900723255092   0.041268802786803
   0.220950267572170   0.277900723255092   0.541268802786803
   0.720950267572171   0.277900723255092   0.541268802786803
   0.220950267572170   0.777900723255092   0.541268802786803
   0.720950267572171   0.777900723255092   0.541268802786803
   0.029049757440283   0.277900718335786   0.291268792941356
   0.529049757440283   0.277900718335786   0.291268792941356
   0.029049757440283   0.777900718335786   0.291268792941356
   0.529049757440283   0.777900718335786   0.291268792941356
   0.029049757440283   0.277900718335786   0.791268792941356
   0.529049757440283   0.277900718335786   0.791268792941356
   0.029049757440283   0.777900718335786   0.791268792941356
   0.529049757440283   0.777900718335786   0.791268792941356
   0.048202806484757   0.147356902552153   0.424989730384127
   0.548202806484757   0.147356902552153   0.424989730384127
   0.048202806484757   0.647356902552153   0.424989730384127
   0.548202806484757   0.647356902552153   0.424989730384127
   0.048202806484757   0.147356902552153   0.924989730384127
   0.548202806484757   0.147356902552153   0.924989730384127
   0.048202806484757   0.647356902552153   0.924989730384127
   0.548202806484757   0.647356902552153   0.924989730384127
   0.451797194738310   0.352643098739559   0.075010267699021
   0.951797194738310   0.352643098739559   0.075010267699021
   0.451797194738310   0.852643098739559   0.075010267699021
   0.951797194738310   0.852643098739559   0.075010267699021
   0.451797194738310   0.352643098739559   0.575010267699021
   0.951797194738310   0.352643098739559   0.575010267699021
   0.451797194738310   0.852643098739559   0.575010267699021
   0.951797194738310   0.852643098739559   0.575010267699021
   0.201797192991161   0.147356900901604   0.174989733128835
   0.701797192991161   0.147356900901604   0.174989733128835
   0.201797192991161   0.647356900901604   0.174989733128835
   0.701797192991161   0.647356900901604   0.174989733128835
   0.201797192991161   0.147356900901604   0.674989733128835
   0.701797192991161   0.147356900901604   0.674989733128835
   0.201797192991161   0.647356900901604   0.674989733128835
   0.701797192991161   0.647356900901604   0.674989733128835
   0.298202808755844   0.102643099132262   0.424989733602651
   0.798202808755844   0.102643099132262   0.424989733602651
   0.298202808755844   0.602643099132262   0.424989733602651
   0.798202808755844   0.602643099132262   0.424989733602651
   0.298202808755844   0.102643099132262   0.924989733602651
   0.798202808755844   0.102643099132262   0.924989733602651
   0.298202808755844   0.602643099132262   0.924989733602651
   0.798202808755844   0.602643099132262   0.924989733602651
   0.451797192962617   0.102643097814918   0.174989741038428
   0.951797192962617   0.102643097814918   0.174989741038428
   0.451797192962617   0.602643097814918   0.174989741038428
   0.951797192962617   0.602643097814918   0.174989741038428
   0.451797192962617   0.102643097814918   0.674989741038428
   0.951797192962617   0.102643097814918   0.674989741038428
   0.451797192962617   0.602643097814918   0.674989741038428
   0.951797192962617   0.602643097814918   0.674989741038428
   0.298202806764591   0.352643099365925   0.325010266408883
   0.798202806764591   0.352643099365925   0.325010266408883
   0.298202806764591   0.852643099365925   0.325010266408883
   0.798202806764591   0.852643099365925   0.325010266408883
   0.298202806764591   0.352643099365925   0.825010266408883
   0.798202806764591   0.352643099365925   0.825010266408883
   0.298202806764591   0.852643099365925   0.825010266408883
   0.798202806764591   0.852643099365925   0.825010266408883
   0.201797190783833   0.397356901377120   0.075010267203689
   0.701797190783833   0.397356901377120   0.075010267203689
   0.201797190783833   0.897356901377120   0.075010267203689
   0.701797190783833   0.897356901377120   0.075010267203689
   0.201797190783833   0.397356901377120   0.575010267203689
   0.701797190783833   0.397356901377120   0.575010267203689
   0.201797190783833   0.897356901377120   0.575010267203689
   0.701797190783833   0.897356901377120   0.575010267203689
   0.048202806804322   0.397356901762265   0.325010258505852
   0.548202806804322   0.397356901762265   0.325010258505852
   0.048202806804322   0.897356901762265   0.325010258505852
   0.548202806804322   0.897356901762265   0.325010258505852
   0.048202806804322   0.397356901762265   0.825010258505852
   0.548202806804322   0.397356901762265   0.825010258505852
   0.048202806804322   0.897356901762265   0.825010258505852
   0.548202806804322   0.897356901762265   0.825010258505852
   0.080043978121248   0.497993005640930   0.385614339892256
   0.580043978121248   0.497993005640930   0.385614339892256
   0.080043978121248   0.997993005640930   0.385614339892256
   0.580043978121248   0.997993005640930   0.385614339892256
   0.080043978121248   0.497993005640930   0.885614339892256
   0.580043978121248   0.497993005640930   0.885614339892256
   0.080043978121248   0.997993005640930   0.885614339892256
   0.580043978121248   0.997993005640930   0.885614339892256
   0.014624474559378   0.109833814486390   0.479003514151412
   0.514624474559378   0.109833814486390   0.479003514151412
   0.014624474559378   0.609833814486390   0.479003514151412
   0.514624474559378   0.609833814486390   0.479003514151412
   0.014624474559378   0.109833814486390   0.979003514151412
   0.514624474559378   0.109833814486390   0.979003514151412
   0.014624474559378   0.609833814486390   0.979003514151412
   0.514624474559378   0.609833814486390   0.979003514151412
   0.419956024983484   0.002006992550269   0.114385655627270
   0.919956024983484   0.002006992550269   0.114385655627270
   0.419956024983484   0.502006992550269   0.114385655627270
   0.919956024983484   0.502006992550269   0.114385655627270
   0.419956024983484   0.002006992550269   0.614385655627270
   0.919956024983484   0.002006992550269   0.614385655627270
   0.419956024983484   0.502006992550269   0.614385655627270
   0.919956024983484   0.502006992550269   0.614385655627270
   0.485375524004035   0.390166185619084   0.020996488118784
   0.985375524004035   0.390166185619084   0.020996488118784
   0.485375524004035   0.890166185619084   0.020996488118784
   0.985375524004035   0.890166185619084   0.020996488118784
   0.485375524004035   0.390166185619084   0.520996488118784
   0.985375524004035   0.390166185619084   0.520996488118784
   0.485375524004035   0.890166185619084   0.520996488118784
   0.985375524004035   0.890166185619084   0.520996488118784
   0.169955979301850   0.497992991977251   0.135614367528778
   0.669955979301850   0.497992991977251   0.135614367528778
   0.169955979301850   0.997992991977251   0.135614367528778
   0.669955979301850   0.997992991977251   0.135614367528778
   0.169955979301850   0.497992991977251   0.635614367528778
   0.669955979301850   0.497992991977251   0.635614367528778
   0.169955979301850   0.997992991977251   0.635614367528778
   0.669955979301850   0.997992991977251   0.635614367528778
   0.330043975886201   0.252006994162256   0.385614325436688
   0.830043975886201   0.252006994162256   0.385614325436688
   0.330043975886201   0.752006994162256   0.385614325436688
   0.830043975886201   0.752006994162256   0.385614325436688
   0.330043975886201   0.252006994162256   0.885614325436688
   0.830043975886201   0.252006994162256   0.885614325436688
   0.330043975886201   0.752006994162256   0.885614325436688
   0.830043975886201   0.752006994162256   0.885614325436688
   0.419955962739883   0.252007002327321   0.135614366274562
   0.919955962739883   0.252007002327321   0.135614366274562
   0.419955962739883   0.752007002327321   0.135614366274562
   0.919955962739883   0.752007002327321   0.135614366274562
   0.419955962739883   0.252007002327321   0.635614366274562
   0.919955962739883   0.252007002327321   0.635614366274562
   0.419955962739883   0.752007002327321   0.635614366274562
   0.919955962739883   0.752007002327321   0.635614366274562
   0.330044021512640   0.002007008365003   0.364385633551839
   0.830044021512640   0.002007008365003   0.364385633551839
   0.330044021512640   0.502007008365003   0.364385633551839
   0.830044021512640   0.502007008365003   0.364385633551839
   0.330044021512640   0.002007008365003   0.864385633551839
   0.830044021512640   0.002007008365003   0.864385633551839
   0.330044021512640   0.502007008365003   0.864385633551839
   0.830044021512640   0.502007008365003   0.864385633551839
   0.169956025311040   0.247993006484642   0.114385672928958
   0.669956025311040   0.247993006484642   0.114385672928958
   0.169956025311040   0.747993006484642   0.114385672928958
   0.669956025311040   0.747993006484642   0.114385672928958
   0.169956025311040   0.247993006484642   0.614385672928958
   0.669956025311040   0.247993006484642   0.614385672928958
   0.169956025311040   0.747993006484642   0.614385672928958
   0.669956025311040   0.747993006484642   0.614385672928958
   0.080044033704148   0.247992999671035   0.364385628557635
   0.580044033704148   0.247992999671035   0.364385628557635
   0.080044033704148   0.747992999671035   0.364385628557635
   0.580044033704148   0.747992999671035   0.364385628557635
   0.080044033704148   0.247992999671035   0.864385628557635
   0.580044033704148   0.247992999671035   0.864385628557635
   0.080044033704148   0.747992999671035   0.864385628557635
   0.580044033704148   0.747992999671035   0.864385628557635
   0.235375524276635   0.109833803585911   0.229003501046036
   0.735375524276635   0.109833803585911   0.229003501046036
   0.235375524276635   0.609833803585911   0.229003501046036
   0.735375524276635   0.609833803585911   0.229003501046036
   0.235375524276635   0.109833803585911   0.729003501046037
   0.735375524276635   0.109833803585911   0.729003501046037
   0.235375524276635   0.609833803585911   0.729003501046037
   0.735375524276635   0.609833803585911   0.729003501046037
   0.264624480332763   0.140166193462505   0.479003508771613
   0.764624480332763   0.140166193462505   0.479003508771613
   0.264624480332763   0.640166193462505   0.479003508771613
   0.764624480332763   0.640166193462505   0.479003508771613
   0.264624480332763   0.140166193462505   0.979003508771613
   0.764624480332763   0.140166193462505   0.979003508771613
   0.264624480332763   0.640166193462505   0.979003508771613
   0.764624480332763   0.640166193462505   0.979003508771613
   0.485375533877900   0.140166199686899   0.229003500908671
   0.985375533877900   0.140166199686899   0.229003500908671
   0.485375533877900   0.640166199686899   0.229003500908671
   0.985375533877900   0.640166199686899   0.229003500908671
   0.485375533877900   0.140166199686899   0.729003500908671
   0.985375533877900   0.140166199686899   0.729003500908671
   0.485375533877900   0.640166199686899   0.729003500908671
   0.985375533877900   0.640166199686899   0.729003500908671
   0.264624476086559   0.390166196286589   0.270996499489164
   0.764624476086559   0.390166196286589   0.270996499489164
   0.264624476086559   0.890166196286589   0.270996499489164
   0.764624476086559   0.890166196286589   0.270996499489164
   0.264624476086559   0.390166196286589   0.770996499489164
   0.764624476086559   0.390166196286589   0.770996499489164
   0.264624476086559   0.890166196286589   0.770996499489164
   0.764624476086559   0.890166196286589   0.770996499489164
   0.235375520499799   0.359833807300355   0.020996490040124
   0.735375520499799   0.359833807300355   0.020996490040124
   0.235375520499799   0.859833807300355   0.020996490040124
   0.735375520499799   0.859833807300355   0.020996490040124
   0.235375520499799   0.359833807300355   0.520996490040124
   0.735375520499799   0.359833807300355   0.520996490040124
   0.235375520499799   0.859833807300355   0.520996490040124
   0.735375520499799   0.859833807300355   0.520996490040124
   0.014624466291203   0.359833800977458   0.270996499348657
   0.514624466291203   0.359833800977458   0.270996499348657
   0.014624466291203   0.859833800977458   0.270996499348657
   0.514624466291203   0.859833800977458   0.270996499348657
   0.014624466291203   0.359833800977458   0.770996499348657
   0.514624466291203   0.359833800977458   0.770996499348657
   0.014624466291203   0.859833800977458   0.770996499348657
   0.514624466291203   0.859833800977458   0.770996499348657
