 C  H  O 
 1.0000000000000000
     9.3764360602953101   -0.0000000000000000    0.0000000000000000
    -4.6882180301476550    8.1202318251762087    0.0000000000000001
     0.0000000000000000   -0.0000000000000044    8.1373920457427147
 C   H   O  
  18  36  18
Selective dynamics
Cartesian
  0.5581196096681134  1.2443477741956892  8.0028124122215072   T   T   T
  3.3317286772463817  7.9811047573495033  8.0028124122215072   T   T   T
 -3.8892785430761920  7.0147421784622503  8.0028124122215072   T   T   T
  3.8896583723017182  7.0147421784622512  3.9341163893501467   T   T   T
 -0.5577397804425693  1.2443477741956892  3.9341163893501467   T   T   T
 -3.3313488480208555  7.9811047573495042  3.9341163893501467   T   T   T
  5.2463376398157697  3.9510917159210908  2.5778843817263608   T   T   T
  3.3317286772463865  2.5676168738987060  2.5778843817263604   T   T   T
  5.4871575172191243  1.6012542950114461  2.5778843817263604   T   T   T
  3.8896583723017280  1.6012542950114472  6.6465804045977146   T   T   T
  4.1304782497050736  3.9510917159210908  6.6465804045977146   T   T   T
  6.0450872122744750  2.5676168738987069  6.6465804045977146   T   T   T
  0.5581196096681060  6.6578356576464941  5.2903483969739327   T   T   T
 -1.3564893529012760  5.2743608156241066  5.2903483969739327   T   T   T
  0.7989394870714677  4.3079982367368501  5.2903483969739327   T   T   T
 -0.7985596578459323  4.3079982367368519  1.2216523741025773   T   T   T
 -0.5577397804425768  6.6578356576464941  1.2216523741025782   T   T   T
  1.3568691821268055  5.2743608156241084  1.2216523741025773   T   T   T
  0.5683624275092446  1.2643730784850482  6.9060690101417741   T   T   T
  3.3092648460927134  7.9799626456615815  6.9060690101417741   T   T   T
 -3.8770575297636616  6.9958589858608144  6.9060690101417741   T   T   T
  3.8774373589891855  6.9958589858608153  2.8373729872704212   T   T   T
 -0.5679825982837015  1.2643730784850482  2.8373729872704216   T   T   T
 -3.3088850168671886  7.9799626456615824  2.8373729872704216   T   T   T
  5.2565804576568969  3.9711170202104511  1.4811409796466330   T   T   T
  3.3092648460927183  2.5664747622107846  1.4811409796466330   T   T   T
  5.4993785305316587  1.5823711024100100  1.4811409796466330   T   T   T
  3.8774373589891957  1.5823711024100100  5.5498370025179895   T   T   T
  4.1202354318639491  3.9711170202104511  5.5498370025179904   T   T   T
  6.0675510434281383  2.5664747622107846  5.5498370025179895   T   T   T
  0.5683624275092373  6.6778609619358527  4.1936049948942067   T   T   T
 -1.3789531840549425  5.2732187039361822  4.1936049948942058   T   T   T
  0.8111605003840006  4.2891150441354124  4.1936049948942058   T   T   T
 -0.8107806711584649  4.2891150441354133  0.1249089720228485   T   T   T
 -0.5679825982837089  6.6778609619358527  0.1249089720228494   T   T   T
  1.3793330132804722  5.2732187039361831  0.1249089720228486   T   T   T
  0.9669903077591482  2.1511976435034672  0.2989257208863754   T   T   T
  2.3419383039617232  7.8817722341055294  0.2989257208863764   T   T   T
 -3.3083588678825797  6.2072248323984462  0.2989257208863764   T   T   T
  3.3087386971081045  6.2072248323984454  4.3676217437577334   T   T   T
 -0.9666104785336070  2.1511976435034645  4.3676217437577334   T   T   T
 -2.3415584747361975  7.8817722341055285  4.3676217437577352   T   T   T
  5.6552083379067906  4.8579415852288710  3.0113897361339439   T   T   T
  2.3419383039617281  2.4682843506547321  3.0113897361339439   T   T   T
  6.0680771924127459  0.7937369489476434  3.0113897361339439   T   T   T
  3.3087386971081143  0.7937369489476425  7.0800857590053017   T   T   T
  3.7216075516140479  4.8579415852288692  7.0800857590053026   T   T   T
  7.0348775855591237  2.4682843506547312  7.0800857590053026   T   T   T
  0.9669903077591421  7.5646855269542703  5.7238537513815197   T   T   T
 -2.3462797261859238  5.1750282923801292  5.7238537513815197   T   T   T
  1.3798591622650840  3.5004808906730478  5.7238537513815197   T   T   T
 -1.3794793330395485  3.5004808906730469  1.6551577285101595   T   T   T
 -0.9666104785336131  7.5646855269542677  1.6551577285101606   T   T   T
  2.3466595554114593  5.1750282923801283  1.6551577285101604   T   T   T
  1.3626325735016966  0.1388205451784104  0.3376523427312875   T   T   T
  8.5751048903816152  1.1103652110357383  0.3376523427312884   T   T   T
  4.1274863703979365  6.8707771286170898  0.3376523427312884   T   T   T
  5.2493295191228899  6.8707771286170889  4.4063483656026428   T   T   T
  8.0141833160191585  0.1388205451784096  4.4063483656026428   T   T   T
  0.8017109991392227  1.1103652110357374  4.4063483656026428   T   T   T
  6.0508506036493603  2.8455644869038146  3.0501163579788551   T   T   T
  3.8868868602339730  3.8171091527611392  3.0501163579788559   T   T   T
  4.1274863703979463  1.4572892451662931  3.0501163579788551   T   T   T
  5.2493295191228997  1.4572892451662922  7.1188123808502128   T   T   T
  3.3259652858714990  2.8455644869038146  7.1188123808502128   T   T   T
  5.4899290292868796  3.8171091527611392  7.1188123808502128   T   T   T
  1.3626325735016893  5.5523084286292148  5.7625803732264300   T   T   T
 -0.8013311699136851  6.5238530944865420  5.7625803732264309   T   T   T
 -0.5607316597497054  4.1640331868916860  5.7625803732264300   T   T   T
  0.5611114889752412  4.1640331868916851  1.6938843503550733   T   T   T
 -1.3622527442761581  5.5523084286292139  1.6938843503550736   T   T   T
  0.8017109991392166  6.5238530944865412  1.6938843503550736   T   T   T
