 C  H                                   
   1.0000000000000000     
    25.0000000000000000    0.0000000000000000    0.0000000000000000
     0.0000000000000000   25.0000000000000000    0.0000000000000000
     0.0000000000000000    0.0000000000000000   20.0000000000000000
   C    H 
    10     8
Direct
  0.1976387141710916  0.1674781788071371  0.2500148824954636
  0.2528136001496790  0.1674998092060349  0.2500048732252296
  0.2820126781306840  0.2163660012837170  0.2500103845456465
  0.2528950107594312  0.2660949320567383  0.2500266710286070
  0.1959907986566805  0.2645452601733567  0.2500366561300353
  0.1689705764046181  0.2164393754733211  0.2500309175580853
  0.3389168902366038  0.2179156731514880  0.2500003994325439
  0.2820940887406564  0.3149611241342996  0.2500321823200977
  0.3372689747168138  0.3149827545203578  0.2500221730287819
  0.3659371124915651  0.2660215578518148  0.2500061379731235
  0.3608010872599863  0.1804849020982786  0.2499881465976657
  0.1759260233093087  0.1300073789095038  0.2500105334572567
  0.2747462867888402  0.1300974301690303  0.2499926178320493
  0.1741066016188739  0.3019760312128597  0.2500489089781794
  0.1256676368729046  0.2158417209714045  0.2496386446875354
  0.2601614021346563  0.3523635031942902  0.2500444377139104
  0.3589816655327525  0.3524535544430378  0.2500265221201374
  0.4092400520248560  0.2666192123433291  0.2499984108756337

  0.00000000E+00  0.00000000E+00  0.00000000E+00
  0.00000000E+00  0.00000000E+00  0.00000000E+00
  0.00000000E+00  0.00000000E+00  0.00000000E+00
  0.00000000E+00  0.00000000E+00  0.00000000E+00
  0.00000000E+00  0.00000000E+00  0.00000000E+00
  0.00000000E+00  0.00000000E+00  0.00000000E+00
  0.00000000E+00  0.00000000E+00  0.00000000E+00
  0.00000000E+00  0.00000000E+00  0.00000000E+00
  0.00000000E+00  0.00000000E+00  0.00000000E+00
  0.00000000E+00  0.00000000E+00  0.00000000E+00
  0.00000000E+00  0.00000000E+00  0.00000000E+00
  0.00000000E+00  0.00000000E+00  0.00000000E+00
  0.00000000E+00  0.00000000E+00  0.00000000E+00
  0.00000000E+00  0.00000000E+00  0.00000000E+00
  0.00000000E+00  0.00000000E+00  0.00000000E+00
  0.00000000E+00  0.00000000E+00  0.00000000E+00
  0.00000000E+00  0.00000000E+00  0.00000000E+00
  0.00000000E+00  0.00000000E+00  0.00000000E+00
