 N  C  H 
 1.0000000000000000
    18.8713982502890047    0.0001762777407144   -0.0003057926594101
    -0.0001084244086892   11.6073548664748785   -0.0000062293619776
     0.0001823043702528    0.0000060395838287   11.2505625383203363
 N   C   H  
  48  96  96
Selective dynamics
Cartesian
  1.4092241544636341  5.8036724660815544  3.7501483524423151   T   T   T
 10.8449232796081283  5.8037606049519068  3.7499954561126105   T   T   T
  1.4091699422592900 11.6073498993189901  3.7501452377613265   T   T   T
 10.8448690674037849 11.6074380381893576  3.7499923414316214   T   T   T
  1.4092849225870518  5.8036744792761610  7.5003358652157619   T   T   T
 10.8449840477315487  5.8037626181465214  7.5001829688860582   T   T   T
  1.4092307103827066 11.6073519125136073  7.5003327505347741   T   T   T
 10.8449298355271999 11.6074400513839695  7.5001798542050659   T   T   T
  1.4093456907104698  5.8036764924707711 11.2505233779891949   T   T   T
 10.8450448158549673  5.8037646313411351 11.2503704816594929   T   T   T
  1.4092914785061246 11.6073539257082157 11.2505202633082106   T   T   T
 10.8449906036506114 11.6074420645785725 11.2503673669785051   T   T   T
  8.0265005309568274  0.0000548316927649 -0.0001432722858785   T   T   T
 17.4621996561012907  0.0001429705631215 -0.0002961686155836   T   T   T
  8.0264463187524981  5.8037322649301988 -0.0001463869668671   T   T   T
 17.4621454438969543  5.8038204038005601 -0.0002992832965721   T   T   T
  8.0265612990802548  0.0000568448873741  3.7500442404875707   T   T   T
 17.4622604242247021  0.0001449837577307  3.7498913441578652   T   T   T
  8.0265070868759025  5.8037342781248116  3.7500411258065816   T   T   T
 17.4622062120203694  5.8038224169951675  3.7498882294768752   T   T   T
  8.0266220672036699  0.0000588580819833  7.5002317532610157   T   T   T
 17.4623211923481492  0.0001469969523399  7.5000788569313119   T   T   T
  8.0265678549993247  5.8037362913194226  7.5002286385800288   T   T   T
 17.4622669801438022  5.8038244301897812  7.5000757422503277   T   T   T
  6.1270704390763528  2.9018768123007082  1.8749797052312320   T   T   T
 15.5627695642208668  2.9019649511710655  1.8748268089015263   T   T   T
  6.1270162268720041  8.7055542455381421  1.8749765905502433   T   T   T
 15.5627153520165145  8.7056423844085007  1.8748236942205387   T   T   T
  6.1271312071997688  2.9018788254953178  5.6251672180046732   T   T   T
 15.5628303323442765  2.9019669643656774  5.6250143216749651   T   T   T
  6.1270769949954236  8.7055562587327522  5.6251641033236854   T   T   T
 15.5627761201399437  8.7056443976031002  5.6250112069939817   T   T   T
  6.1271919753231892  2.9018808386899262  9.3753547307781115   T   T   T
 15.5628911004677004  2.9019689775602826  9.3752018344484114   T   T   T
  6.1271377631188439  8.7055582719273552  9.3753516160971220   T   T   T
 15.5628368882633605  8.7056464107977227  9.3751987197674183   T   T   T
  3.3086542463441266  2.9018504854736116  1.8750253749252039   T   T   T
 12.7443533714886410  2.9019386243439675  1.8748724785954998   T   T   T
  3.3086000341397854  8.7055279187110362  1.8750222602442157   T   T   T
 12.7442991592843118  8.7056160575814037  1.8748693639145109   T   T   T
  3.3087150144675466  2.9018524986682190  5.6252128876986465   T   T   T
 12.7444141396120578  2.9019406375385790  5.6250599913689419   T   T   T
  3.3086608022632014  8.7055299319056463  5.6252097730176569   T   T   T
 12.7443599274077162  8.7056180707759996  5.6250568766879532   T   T   T
  3.3087757825909629  2.9018545118628296  9.3754004004720812   T   T   T
 12.7444749077354764  2.9019426507331847  9.3752475041423775   T   T   T
  3.3087215703866200  8.7055319451002564  9.3753972857910952   T   T   T
 12.7444206955311454  8.7056200839706204  9.3752443894613844   T   T   T
  0.6994598808735658  1.0497761204005847  0.4567586283187982   T   T   T
 10.1351590060180694  1.0498642592709426  0.4566057319890932   T   T   T
  0.6994056686692204  6.8534535536380270  0.4567555136378096   T   T   T
 10.1351047938137278  6.8535416925083839  0.4566026173081046   T   T   T
  0.6995206489969833  1.0497781335951941  4.2069461410922422   T   T   T
 10.1352197741414845  1.0498662724655519  4.2067932447625358   T   T   T
  0.6994664367926381  6.8534555668326345  4.2069430264112517   T   T   T
 10.1351655619371339  6.8535437057029949  4.2067901300815471   T   T   T
  0.6995814171204016  1.0497801467898045  7.9571336538656965   T   T   T
 10.1352805422649013  1.0498682856601618  7.9569807575359892   T   T   T
  0.6995272049160566  6.8534575800272464  7.9571305391847051   T   T   T
 10.1352263300605614  6.8535457188976032  7.9569776428550032   T   T   T
  0.6994712455111091  4.7538761056809875  3.2933766802628481   T   T   T
 10.1351703706556062  4.7539642445513461  3.2932237839331404   T   T   T
  0.6994170333067640 10.5575535389184250  3.2933735655818546   T   T   T
 10.1351161584512557 10.5576416777887783  3.2932206692521517   T   T   T
  0.6995320136345264  4.7538781188755941  7.0435641930362918   T   T   T
 10.1352311387790213  4.7539662577459501  7.0434112967065872   T   T   T
  0.6994778014301811 10.5575555521130386  7.0435610783553031   T   T   T
 10.1351769265746761 10.5576436909833937  7.0434081820255976   T   T   T
  0.6995927817579439  4.7538801320702051 10.7937517058097328   T   T   T
 10.1352919069024470  4.7539682709405637 10.7935988094800290   T   T   T
  0.6995385695535991 10.5575575653076417 10.7937485911287432   T   T   T
 10.1352376946980840 10.5576457041779985 10.7935956947990377   T   T   T
  8.7362534399093690  1.0498511920933336  0.4566283998935930   T   T   T
 18.1719525650538642  1.0499393309636904  0.4564755035638880   T   T   T
  8.7361992277050238  6.8535286253307683  0.4566252852126040   T   T   T
 18.1718983528495279  6.8536167642011341  0.4564723888828991   T   T   T
  8.7363142080327769  1.0498532052879443  4.2068159126670350   T   T   T
 18.1720133331772615  1.0499413441583012  4.2066630163373286   T   T   T
  8.7362599958284246  6.8535306385253811  4.2068127979860472   T   T   T
 18.1719591209729430  6.8536187773957451  4.2066599016563400   T   T   T
  8.7363749761561866  1.0498552184825520  7.9570034254404929   T   T   T
 18.1720741013006908  1.0499433573529107  7.9568505291107838   T   T   T
  8.7363207639518432  6.8535326517199966  7.9570003107595033   T   T   T
 18.1720198890963580  6.8536207905903499  7.9568474144297960   T   T   T
  8.7362648045469058  4.7539511773737333  3.2932464518376410   T   T   T
 18.1719639296913869  4.7540393162440884  3.2930935555079359   T   T   T
  8.7362105923425570 10.5576286106111734  3.2932433371566510   T   T   T
 18.1719097174870363 10.5577167494815267  3.2930904408269468   T   T   T
  8.7363255726703333  4.7539531905683390  7.0434339646110908   T   T   T
 18.1720246978148161  4.7540413294386967  7.0432810682813853   T   T   T
  8.7362713604659792 10.5576306238057853  7.0434308499301013   T   T   T
 18.1719704856104478 10.5577187626761440  7.0432779536003931   T   T   T
  8.7363863407937394  4.7539552037629491 10.7936214773845265   T   T   T
 18.1720854659382205  4.7540433426333060 10.7934685810548281   T   T   T
  8.7363321285893907 10.5576326370003883 10.7936183627035511   T   T   T
 18.1720312537339019 10.5577207758707399 10.7934654663738296   T   T   T
  5.4173323335918608  1.8520809423260467  2.3317755059889671   T   T   T
 14.8530314587363605  1.8521690811964031  2.3316226096592612   T   T   T
  5.4172781213875103  7.6557583755634928  2.3317723913079775   T   T   T
 14.8529772465320136  7.6558465144338514  2.3316194949782738   T   T   T
  5.4173931017152723  1.8520829555206559  6.0819630187624201   T   T   T
 14.8530922268597756  1.8521710943910132  6.0818101224327155   T   T   T
  5.4173388895109289  7.6557603887581047  6.0819599040814332   T   T   T
 14.8530380146554339  7.6558485276284580  6.0818070077517259   T   T   T
  5.4174538698386883  1.8520849687152658  9.8321505315358451   T   T   T
 14.8531529949832048  1.8521731075856225  9.8319976352061467   T   T   T
  5.4173996576343422  7.6557624019527086  9.8321474168548662   T   T   T
 14.8530987827788596  7.6558505408230664  9.8319945205251535   T   T   T
  4.0184267674831418  1.8520678751484372  2.3317981738934677   T   T   T
 13.4541258926276566  1.8521560140187949  2.3316452775637631   T   T   T
  4.0183725552787966  7.6557453083858835  2.3317950592124803   T   T   T
 13.4540716804233327  7.6558334472562377  2.3316421628827748   T   T   T
  4.0184875356065630  1.8520698883430480  6.0819856866669202   T   T   T
 13.4541866607510787  1.8521580272134042  6.0818327903372200   T   T   T
  4.0184333234022143  7.6557473215804936  6.0819825719859333   T   T   T
 13.4541324485467300  7.6558354604508496  6.0818296756562269   T   T   T
  4.0185483037299727  1.8520719015376574  9.8321731994403514   T   T   T
 13.4542474288744973  1.8521600404080139  9.8320203031106459   T   T   T
  4.0184940915256302  7.6557493347751038  9.8321700847593601   T   T   T
 13.4541932166701592  7.6558374736454580  9.8320171884296528   T   T   T
  4.0183923518286191  3.9516463554482741  1.4182295741674658   T   T   T
 13.4540914769731419  3.9517344943186323  1.4180766778377598   T   T   T
  4.0183381396242641  9.7553237886857094  1.4182264594864760   T   T   T
 13.4540372647687896  9.7554119275560680  1.4180735631567720   T   T   T
  4.0184531199520315  3.9516483686428847  5.1684170869409121   T   T   T
 13.4541522450965498  3.9517365075132407  5.1682641906112048   T   T   T
  4.0183989077476872  9.7553258018803231  5.1684139722599225   T   T   T
 13.4540980328922064  9.7554139407506852  5.1682610759302161   T   T   T
  4.0185138880754501  3.9516503818374948  8.9186045997143495   T   T   T
 13.4542130132199738  3.9517385207078513  8.9184517033846440   T   T   T
  4.0184596758711031  9.7553278150749350  8.9186014850333599   T   T   T
 13.4541588010156374  9.7554159539452900  8.9184485887036544   T   T   T
  5.4172979179373231  3.9516594226258861  1.4182069062629656   T   T   T
 14.8529970430818317  3.9517475614962443  1.4180540099332604   T   T   T
  5.4172437057329814  9.7553368558633142  1.4182037915819770   T   T   T
 14.8529428308774829  9.7554249947336675  1.4180508952522715   T   T   T
  5.4173586860607399  3.9516614358204967  5.1683944190364102   T   T   T
 14.8530578112052520  3.9517495746908535  5.1682415227067038   T   T   T
  5.4173044738563965  9.7553388690579279  5.1683913043554188   T   T   T
 14.8530035990009051  9.7554270079282830  5.1682384080257133   T   T   T
  5.4174194541841629  3.9516634490151046  8.9185819318098467   T   T   T
 14.8531185793286511  3.9517515878854637  8.9184290354801394   T   T   T
  5.4173652419798159  9.7553408822525327  8.9185788171288589   T   T   T
 14.8530643671243130  9.7554290211228896  8.9184259207991587   T   T   T
  1.2637233649465514  1.8962262849872262  0.8374345529163925   T   T   T
 10.6994224900910506  1.8963144238575822  0.8372816565866873   T   T   T
  1.2636691527422064  7.6999037182246637  0.8374314382354039   T   T   T
 10.6993682778866983  7.6999918570950259  0.8372785419056987   T   T   T
  1.2637841330699682  1.8962282981818355  4.5876220656898345   T   T   T
 10.6994832582144621  1.8963164370521917  4.5874691693601308   T   T   T
  1.2637299208656241  7.6999057314192738  4.5876189510088485   T   T   T
 10.6994290460101240  7.6999938702896307  4.5874660546791413   T   T   T
  1.2638449011933857  1.8962303113764460  8.3378095784632755   T   T   T
 10.6995440263378896  1.8963184502468016  8.3376566821335629   T   T   T
  1.2637906889890396  7.6999077446138884  8.3378064637822842   T   T   T
 10.6994898141335391  7.6999958834842470  8.3376535674525769   T   T   T
  1.2637382056057183  3.9074364826978063  2.9126824689267026   T   T   T
 10.6994373307502215  3.9075246215681618  2.9125295725969971   T   T   T
  1.2636839934013733  9.7111139159352362  2.9126793542457126   T   T   T
 10.6993831185458799  9.7112020548055824  2.9125264579160084   T   T   T
  1.2637989737291351  3.9074384958924160  6.6628699817001547   T   T   T
 10.6994980988736366  3.9075266347627715  6.6627170853704465   T   T   T
  1.2637447615247899  9.7111159291298410  6.6628668670191651   T   T   T
 10.6994438866692985  9.7112040680002139  6.6627139706894560   T   T   T
  1.2638597418525526  3.9074405090870270 10.4130574944735947   T   T   T
 10.6995588669970534  3.9075286479573812 10.4129045981438928   T   T   T
  1.2638055296482074  9.7111179423244565 10.4130543797926087   T   T   T
 10.6995046547927082  9.7112060811948115 10.4129014834629015   T   T   T
  8.1719864798147501  1.8962908150765161  0.8373226112297312   T   T   T
 17.6076856049592188  1.8963789539468736  0.8371697149000260   T   T   T
  8.1719322676103996  7.6999682483139598  0.8373194965487420   T   T   T
 17.6076313927548895  7.7000563871843157  0.8371666002190374   T   T   T
  8.1720472479381581  1.8962928282711253  4.5875101240031713   T   T   T
 17.6077463730826160  1.8963809671414829  4.5873572276734693   T   T   T
  8.1719930357338182  7.6999702615085663  4.5875070093221897   T   T   T
 17.6076921608782868  7.7000584003789276  4.5873541129924824   T   T   T
  8.1721080160615820  1.8962948414657352  8.3376976367766051   T   T   T
 17.6078071412060488  1.8963829803360921  8.3375447404469103   T   T   T
  8.1720538038572421  7.6999722747031809  8.3376945220956244   T   T   T
 17.6077529290017090  7.7000604135735324  8.3375416257659136   T   T   T
  8.1720013204739104  3.9075010127870984  2.9125705272400402   T   T   T
 17.6077004456183985  3.9075891516574548  2.9124176309103365   T   T   T
  8.1719471082695652  9.7111784460245225  2.9125674125590515   T   T   T
 17.6076462334140373  9.7112665848948794  2.9124145162293456   T   T   T
  8.1720620885973272  3.9075030259817072  6.6627580400134896   T   T   T
 17.6077612137417958  3.9075911648520649  6.6626051436837859   T   T   T
  8.1720078763929855  9.7111804592191397  6.6627549253325036   T   T   T
 17.6077070015374524  9.7112685980894824  6.6626020290027981   T   T   T
  8.1721228567207493  3.9075050391763191 10.4129455527869332   T   T   T
 17.6078219818652428  3.9075931780466755 10.4127926564572295   T   T   T
  8.1720686445164077  9.7111824724137463 10.4129424381059383   T   T   T
 17.6077677696608781  9.7112706112840943 10.4127895417762328   T   T   T
  5.9816116309601082  1.0056417280659145  2.7124523391157545   T   T   T
 15.4173107561046390  1.0057298669362718  2.7122994427860512   T   T   T
  5.9815574187557665  6.8093191613033577  2.7124492244347662   T   T   T
 15.4172565439002849  6.8094073001737172  2.7122963281050607   T   T   T
  5.9816723990835259  1.0056437412605246  6.4626398518892065   T   T   T
 15.4173715242280540  1.0057318801308814  6.4624869555595028   T   T   T
  5.9816181868791869  6.8093211744979651  6.4626367372082179   T   T   T
 15.4173173120237035  6.8094093133683229  6.4624838408785106   T   T   T
  5.9817331672069445  1.0056457544551349 10.2128273646626493   T   T   T
 15.4174322923514655  1.0057338933254911 10.2126744683329420   T   T   T
  5.9816789550026019  6.8093231876925779 10.2128242499816562   T   T   T
 15.4173780801471239  6.8094113265629348 10.2126713536519524   T   T   T
  3.4541756206838126  1.0056181192848488  2.7124932937587989   T   T   T
 12.8898747458283296  1.0057062581552059  2.7123403974290925   T   T   T
  3.4541214084794709  6.8092955525222925  2.7124901790778093   T   T   T
 12.8898205336239773  6.8093836913926484  2.7123372827481043   T   T   T
  3.4542363888072325  1.0056201324794585  6.4626808065322523   T   T   T
 12.8899355139517411  1.0057082713498158  6.4625279102025468   T   T   T
  3.4541821766028855  6.8092975657169070  6.4626776918512627   T   T   T
 12.8898813017474030  6.8093857045872586  6.4625247955215617   T   T   T
  3.4542971569306480  1.0056221456740675 10.2128683193056879   T   T   T
 12.8899962820751650  1.0057102845444248 10.2127154229759878   T   T   T
  3.4542429447263046  6.8092995789115101 10.2128652046246966   T   T   T
 12.8899420698708163  6.8093877177818651 10.2127123082949947   T   T   T
  3.4541130544603580  4.7980855697083999  1.0375527410406788   T   T   T
 12.8898121796048706  4.7981737085787568  1.0373998447109736   T   T   T
  3.4540588422560119 10.6017630029458338  1.0375496263596899   T   T   T
 12.8897579674005129 10.6018511418161960  1.0373967300299849   T   T   T
  3.4541738225837744  4.7980875829030074  4.7877402538141212   T   T   T
 12.8898729477282963  4.7981757217733660  4.7875873574844157   T   T   T
  3.4541196103794314 10.6017650161404493  4.7877371391331334   T   T   T
 12.8898187355239386 10.6018531550108062  4.7875842428034279   T   T   T
  3.4542345907071899  4.7980895960976193  8.5379277665875541   T   T   T
 12.8899337158517096  4.7981777349679771  8.5377748702578433   T   T   T
  3.4541803785028478 10.6017670293350612  8.5379246519065717   T   T   T
 12.8898795036473555 10.6018551682054198  8.5377717555768609   T   T   T
  5.9815490647366518  4.7981091784894696  1.0375117863976351   T   T   T
 15.4172481898811746  4.7981973173598229  1.0373588900679296   T   T   T
  5.9814948525323093 10.6017866117268955  1.0375086717166464   T   T   T
 15.4171939776768276 10.6018747505972541  1.0373557753869407   T   T   T
  5.9816098328600740  4.7981111916840753  4.7876992991710727   T   T   T
 15.4173089580045914  4.7981993305544259  4.7875464028413672   T   T   T
  5.9815556206557305 10.6017886249215163  4.7876961844900885   T   T   T
 15.4172547458002498 10.6018767637918696  4.7875432881603812   T   T   T
  5.9816706009834872  4.7981132048786863  8.5378868119445137   T   T   T
 15.4173697261280171  4.7982013437490378  8.5377339156148118   T   T   T
  5.9816163887791411 10.6017906381161175  8.5378836972635259   T   T   T
 15.4173155139236666 10.6018787769864833  8.5377308009338169   T   T   T
