 C  H                                   
   1.0000000000000000     
    25.0000000000000000    0.0000000000000000    0.0000000000000000
     0.0000000000000000   22.0000000000000000    0.0000000000000000
     0.0000000000000000    0.0000000000000000   20.0000000000000000
   C    H 
    14    10
Direct
  0.2588458872811401  0.1861589482189459  0.2492892994473976
  0.3137705730644100  0.1861416099384243  0.2495280266830591
  0.3432773740528461  0.2419014720245869  0.2494913383987480
  0.3138406576407888  0.2988041932959007  0.2491949896506966
  0.2566158825701734  0.2966248056134049  0.2489528163972423
  0.2299167470971639  0.2420804492570170  0.2489981998118154
  0.3993941313033318  0.2434305606583393  0.2497306439171609
  0.3423084687050562  0.3537802726520169  0.2491559394055969
  0.3984252259522449  0.3553093612819893  0.2493952449371619
  0.4278619423700647  0.2984066400170704  0.2496915936657800
  0.4850867174440694  0.3005860277286132  0.2499337669232347
  0.5117858528994859  0.3551303840967321  0.2498883835401315
  0.4828567127030610  0.4110518851244223  0.2495972838921574
  0.4279320269226545  0.4110692233772824  0.2493585566595939
  0.5070566407088535  0.2581076651540428  0.2501548273651224
  0.4213936685280260  0.2009043706573621  0.2499519123892355
  0.2370707265499732  0.1436211828007359  0.2493206623277544
  0.3357475119137447  0.1436679283812907  0.2497491818830966
  0.2346459593335766  0.3391031682085739  0.2487317559617850
  0.1866188259251018  0.2411474480261475  0.2484129827144476
  0.3203089314844121  0.3963064626549908  0.2489346709340907
  0.5550837740697148  0.3560633853530319  0.2500736006889284
  0.5046318734194770  0.4535896505514785  0.2495659209735948
  0.4059550880595566  0.4535429049240420  0.2491374014308647

  0.00000000E+00  0.00000000E+00  0.00000000E+00
  0.00000000E+00  0.00000000E+00  0.00000000E+00
  0.00000000E+00  0.00000000E+00  0.00000000E+00
  0.00000000E+00  0.00000000E+00  0.00000000E+00
  0.00000000E+00  0.00000000E+00  0.00000000E+00
  0.00000000E+00  0.00000000E+00  0.00000000E+00
  0.00000000E+00  0.00000000E+00  0.00000000E+00
  0.00000000E+00  0.00000000E+00  0.00000000E+00
  0.00000000E+00  0.00000000E+00  0.00000000E+00
  0.00000000E+00  0.00000000E+00  0.00000000E+00
  0.00000000E+00  0.00000000E+00  0.00000000E+00
  0.00000000E+00  0.00000000E+00  0.00000000E+00
  0.00000000E+00  0.00000000E+00  0.00000000E+00
  0.00000000E+00  0.00000000E+00  0.00000000E+00
  0.00000000E+00  0.00000000E+00  0.00000000E+00
  0.00000000E+00  0.00000000E+00  0.00000000E+00
  0.00000000E+00  0.00000000E+00  0.00000000E+00
  0.00000000E+00  0.00000000E+00  0.00000000E+00
  0.00000000E+00  0.00000000E+00  0.00000000E+00
  0.00000000E+00  0.00000000E+00  0.00000000E+00
  0.00000000E+00  0.00000000E+00  0.00000000E+00
  0.00000000E+00  0.00000000E+00  0.00000000E+00
  0.00000000E+00  0.00000000E+00  0.00000000E+00
  0.00000000E+00  0.00000000E+00  0.00000000E+00
