 C  H  N                                
   1.0000000000000000     
    22.0000000000000000    0.0000000000000000    0.0000000000000000
     0.0000000000000000   22.0000000000000000    0.0000000000000000
     0.0000000000000000    0.0000000000000000   22.0000000000000000
   C    H    N 
     3     4     2
Direct
  0.2667866057259118  0.3030503432528207  0.2661276168511009
  0.2265631538232924  0.2582464063265277  0.2433517369804719
  0.2600686748124446  0.2265835389674820  0.2005310640039966
  0.2487189521712665  0.1888137027160894  0.1715968176410954
  0.1800750578364756  0.2501893970944238  0.2561950786895366
  0.2583078194416260  0.3371087552273409  0.3002928320945060
  0.3524701029563531  0.2414218000239146  0.1739487329734217
  0.3163633147607783  0.2527945174851425  0.1997177519470270
  0.3216576821082526  0.3000583570880977  0.2394060960915720

  0.00000000E+00  0.00000000E+00  0.00000000E+00
  0.00000000E+00  0.00000000E+00  0.00000000E+00
  0.00000000E+00  0.00000000E+00  0.00000000E+00
  0.00000000E+00  0.00000000E+00  0.00000000E+00
  0.00000000E+00  0.00000000E+00  0.00000000E+00
  0.00000000E+00  0.00000000E+00  0.00000000E+00
  0.00000000E+00  0.00000000E+00  0.00000000E+00
  0.00000000E+00  0.00000000E+00  0.00000000E+00
  0.00000000E+00  0.00000000E+00  0.00000000E+00
