 C  H  O 
 1.0000000000000000
    25.0000000000000000    0.0000000000000000    0.0000000000000000
     0.0000000000000000   25.0000000000000000    0.0000000000000000
     0.0000000000000000    0.0000000000000000   25.0000000000000000
 C   H   O  
   2   2   4
Cartesian
 12.8658699999999993 12.0956900000000012 11.9531150000000004
 12.1340799999999991 12.9037400000000027 13.0467350000000000
 11.7741599999999984 10.7141100000000016 12.5770949999999999
 13.2250499999999995 14.2858900000000020 12.4221749999999993
 13.7119699999999991 12.5996900000000025 11.2489950000000007
 11.2880299999999991 12.4003200000000007 13.7510049999999993
 12.4646899999999992 10.8259000000000007 11.8834549999999997
 12.5344599999999993 14.1736500000000021 13.1154250000000001
