 C  H  N  O 
        1.0000000000
  24.151367940761695  -0.000040798038492  -0.325737963656873
  -0.000042584667322  25.065317612930322  -0.000210960587726
  -3.882534787094321  -0.000047315709003   6.303425180285913
  128  128   64   64
 Direct
   0.075189321166455   0.105009126383671   0.501708760254301
   0.575189321166455   0.105009126383671   0.501708760254301
   0.075189321166455   0.605009126383671   0.501708760254301
   0.575189321166455   0.605009126383671   0.501708760254301
   0.075189321166455   0.105009126383671   1.001708760254301
   0.575189321166455   0.105009126383671   1.001708760254301
   0.075189321166455   0.605009126383671   1.001708760254301
   0.575189321166455   0.605009126383671   1.001708760254301
   0.424810248418893   0.394991007319130  -0.001708670346684
   0.924810248418893   0.394991007319130  -0.001708670346684
   0.424810248418893   0.894991007319130  -0.001708670346684
   0.924810248418893   0.894991007319130  -0.001708670346684
   0.424810248418893   0.394991007319130   0.498291329653316
   0.924810248418893   0.394991007319130   0.498291329653316
   0.424810248418893   0.894991007319130   0.498291329653316
   0.924810248418893   0.894991007319130   0.498291329653316
   0.174810019457429   0.355009287900895  -0.001710520606992
   0.674810019457429   0.355009287900895  -0.001710520606992
   0.174810019457429   0.855009287900895  -0.001710520606992
   0.674810019457429   0.855009287900895  -0.001710520606992
   0.174810019457429   0.355009287900895   0.498289479393008
   0.674810019457429   0.355009287900895   0.498289479393008
   0.174810019457429   0.855009287900895   0.498289479393008
   0.674810019457429   0.855009287900895   0.498289479393008
   0.325189526433778   0.144990838541451   0.501710456233002
   0.825189526433778   0.144990838541451   0.501710456233002
   0.325189526433778   0.644990838541450   0.501710456233002
   0.825189526433778   0.644990838541450   0.501710456233002
   0.325189526433778   0.144990838541451   1.001710456233002
   0.825189526433778   0.144990838541451   1.001710456233002
   0.325189526433778   0.644990838541450   1.001710456233002
   0.825189526433778   0.644990838541450   1.001710456233002
   0.090553778872465   0.006534504608103   0.016628099131960
   0.590553778872465   0.006534504608103   0.016628099131960
   0.090553778872465   0.506534504608103   0.016628099131960
   0.590553778872465   0.506534504608103   0.016628099131960
   0.090553778872465   0.006534504608103   0.516628099131960
   0.590553778872465   0.006534504608103   0.516628099131960
   0.090553778872465   0.506534504608103   0.516628099131960
   0.590553778872465   0.506534504608103   0.516628099131960
   0.409445762454484   0.493465619192486   0.483371818925470
   0.909445762454484   0.493465619192486   0.483371818925470
   0.409445762454484   0.993465619192486   0.483371818925470
   0.909445762454484   0.993465619192486   0.483371818925470
   0.409445762454484   0.493465619192486   0.983371818925470
   0.909445762454484   0.493465619192486   0.983371818925470
   0.409445762454484   0.993465619192486   0.983371818925470
   0.909445762454484   0.993465619192486   0.983371818925470
   0.159445438611710   0.256534473779379   0.483370511833887
   0.659445438611710   0.256534473779379   0.483370511833887
   0.159445438611710   0.756534473779379   0.483370511833887
   0.659445438611710   0.756534473779379   0.483370511833887
   0.159445438611710   0.256534473779379   0.983370511833887
   0.659445438611710   0.256534473779379   0.983370511833887
   0.159445438611710   0.756534473779379   0.983370511833887
   0.659445438611710   0.756534473779379   0.983370511833887
   0.340554110526785   0.243465646211152   0.016629400950597
   0.840554110526785   0.243465646211152   0.016629400950597
   0.340554110526785   0.743465646211152   0.016629400950597
   0.840554110526785   0.743465646211152   0.016629400950597
   0.340554110526785   0.243465646211152   0.516629400950597
   0.840554110526785   0.243465646211152   0.516629400950597
   0.340554110526785   0.743465646211152   0.516629400950597
   0.840554110526785   0.743465646211152   0.516629400950597
   0.153402702723921   0.015146870892704   0.043215764176502
   0.653402702723921   0.015146870892704   0.043215764176502
   0.153402702723921   0.515146870892704   0.043215764176502
   0.653402702723921   0.515146870892704   0.043215764176502
   0.153402702723921   0.015146870892704   0.543215764176502
   0.653402702723921   0.015146870892704   0.543215764176502
   0.153402702723921   0.515146870892704   0.543215764176502
   0.653402702723921   0.515146870892704   0.543215764176502
   0.346596841912932   0.484853255827156   0.456784161635899
   0.846596841912932   0.484853255827156   0.456784161635899
   0.346596841912932   0.984853255827156   0.456784161635899
   0.846596841912932   0.984853255827156   0.456784161635899
   0.346596841912932   0.484853255827156   0.956784161635899
   0.846596841912932   0.484853255827156   0.956784161635899
   0.346596841912932   0.984853255827156   0.956784161635899
   0.846596841912932   0.984853255827156   0.956784161635899
   0.096596399205991   0.265146385761980   0.456782012055316
   0.596596399205991   0.265146385761980   0.456782012055316
   0.096596399205991   0.765146385761980   0.456782012055316
   0.596596399205991   0.765146385761980   0.456782012055316
   0.096596399205991   0.265146385761980   0.956782012055317
   0.596596399205991   0.265146385761980   0.956782012055317
   0.096596399205991   0.765146385761980   0.956782012055317
   0.596596399205991   0.765146385761980   0.956782012055317
   0.403403150915767   0.234853733466633   0.043217912464328
   0.903403150915767   0.234853733466633   0.043217912464328
   0.403403150915767   0.734853733466633   0.043217912464328
   0.903403150915767   0.734853733466633   0.043217912464328
   0.403403150915767   0.234853733466633   0.543217912464328
   0.903403150915767   0.234853733466633   0.543217912464328
   0.403403150915767   0.734853733466633   0.543217912464328
   0.903403150915767   0.734853733466633   0.543217912464328
   0.173759807483253   0.066003851137118   0.045871316014366
   0.673759807483253   0.066003851137118   0.045871316014366
   0.173759807483253   0.566003851137118   0.045871316014366
   0.673759807483253   0.566003851137118   0.045871316014366
   0.173759807483253   0.066003851137118   0.545871316014366
   0.673759807483253   0.066003851137118   0.545871316014366
   0.173759807483253   0.566003851137118   0.545871316014366
   0.673759807483253   0.566003851137118   0.545871316014366
   0.326239754728644   0.433996276087772   0.454128717659464
   0.826239754728644   0.433996276087772   0.454128717659464
   0.326239754728644   0.933996276087772   0.454128717659464
   0.826239754728644   0.933996276087772   0.454128717659464
   0.326239754728644   0.433996276087772   0.954128717659464
   0.826239754728644   0.433996276087772   0.954128717659464
   0.326239754728644   0.933996276087772   0.954128717659464
   0.826239754728644   0.933996276087772   0.954128717659464
   0.076239302977416   0.316003267666578   0.454125819338794
   0.576239302977416   0.316003267666578   0.454125819338794
   0.076239302977416   0.816003267666578   0.454125819338794
   0.576239302977416   0.816003267666578   0.454125819338794
   0.076239302977416   0.316003267666578   0.954125819338794
   0.576239302977416   0.316003267666578   0.954125819338794
   0.076239302977416   0.816003267666578   0.954125819338794
   0.576239302977416   0.816003267666578   0.954125819338794
   0.423760245029465   0.183996850454735   0.045874126483797
   0.923760245029465   0.183996850454735   0.045874126483797
   0.423760245029465   0.683996850454735   0.045874126483797
   0.923760245029465   0.683996850454735   0.045874126483797
   0.423760245029465   0.183996850454735   0.545874126483797
   0.923760245029465   0.183996850454735   0.545874126483797
   0.423760245029465   0.683996850454735   0.545874126483797
   0.923760245029465   0.683996850454735   0.545874126483797
   0.219861827833262   0.075472589239260   0.061828058807469
   0.719861827833262   0.075472589239260   0.061828058807469
   0.219861827833262   0.575472589239260   0.061828058807469
   0.719861827833262   0.575472589239260   0.061828058807469
   0.219861827833262   0.075472589239260   0.561828058807469
   0.719861827833262   0.075472589239260   0.561828058807469
   0.219861827833262   0.575472589239260   0.561828058807469
   0.719861827833262   0.575472589239260   0.561828058807469
   0.280137754837714   0.424527535603032   0.438172101542566
   0.780137754837714   0.424527535603032   0.438172101542566
   0.280137754837714   0.924527535603032   0.438172101542566
   0.780137754837714   0.924527535603032   0.438172101542566
   0.280137754837714   0.424527535603032   0.938172101542566
   0.780137754837714   0.424527535603032   0.938172101542566
   0.280137754837714   0.924527535603032   0.938172101542566
   0.780137754837714   0.924527535603032   0.938172101542566
   0.030137207402996   0.325471728432659   0.438168389415140
   0.530137207402996   0.325471728432659   0.438168389415140
   0.030137207402996   0.825471728432659   0.438168389415140
   0.530137207402996   0.825471728432659   0.438168389415140
   0.030137207402996   0.325471728432659   0.938168389415140
   0.530137207402996   0.325471728432659   0.938168389415140
   0.030137207402996   0.825471728432659   0.938168389415140
   0.530137207402996   0.825471728432659   0.938168389415140
   0.469862334004574   0.174528385274273   0.061831519496527
   0.969862334004574   0.174528385274273   0.061831519496527
   0.469862334004574   0.674528385274273   0.061831519496527
   0.969862334004574   0.674528385274273   0.061831519496527
   0.469862334004574   0.174528385274273   0.561831519496527
   0.969862334004574   0.174528385274273   0.561831519496527
   0.469862334004574   0.674528385274273   0.561831519496527
   0.969862334004574   0.674528385274273   0.561831519496527
   0.151743110904666   0.147373348621840   0.020662213896252
   0.651743110904666   0.147373348621840   0.020662213896252
   0.151743110904666   0.647373348621840   0.020662213896252
   0.651743110904666   0.647373348621840   0.020662213896252
   0.151743110904666   0.147373348621840   0.520662213896252
   0.651743110904666   0.147373348621840   0.520662213896252
   0.151743110904666   0.647373348621840   0.520662213896252
   0.651743110904666   0.647373348621840   0.520662213896252
   0.348256438415099   0.352626774136795   0.479337710771441
   0.848256438415099   0.352626774136795   0.479337710771441
   0.348256438415099   0.852626774136795   0.479337710771441
   0.848256438415099   0.852626774136795   0.479337710771441
   0.348256438415099   0.352626774136795   0.979337710771441
   0.848256438415099   0.352626774136795   0.979337710771441
   0.348256438415099   0.852626774136795   0.979337710771441
   0.848256438415099   0.852626774136795   0.979337710771441
   0.098256095397777   0.397373048605679   0.479334487642211
   0.598256095397777   0.397373048605679   0.479334487642211
   0.098256095397777   0.897373048605679   0.479334487642211
   0.598256095397777   0.897373048605679   0.479334487642211
   0.098256095397777   0.397373048605679   0.979334487642211
   0.598256095397777   0.397373048605679   0.979334487642211
   0.098256095397777   0.897373048605679   0.979334487642211
   0.598256095397777   0.897373048605679   0.979334487642211
   0.401743470035520   0.102627067604287   0.020665617119114
   0.901743470035520   0.102627067604287   0.020665617119114
   0.401743470035520   0.602627067604287   0.020665617119114
   0.901743470035520   0.602627067604287   0.020665617119114
   0.401743470035520   0.102627067604287   0.520665617119114
   0.901743470035520   0.102627067604287   0.520665617119114
   0.401743470035520   0.602627067604287   0.520665617119114
   0.901743470035520   0.602627067604287   0.520665617119114
   0.010640281903646   0.048149298259648   0.483431152703593
   0.510640281903646   0.048149298259648   0.483431152703593
   0.010640281903646   0.548149298259648   0.483431152703593
   0.510640281903646   0.548149298259648   0.483431152703593
   0.010640281903646   0.048149298259648   0.983431152703593
   0.510640281903646   0.048149298259648   0.983431152703593
   0.010640281903646   0.548149298259648   0.983431152703593
   0.510640281903646   0.548149298259648   0.983431152703593
   0.489359259635128   0.451850833814119   0.016568725116982
   0.989359259635128   0.451850833814119   0.016568725116982
   0.489359259635128   0.951850833814119   0.016568725116982
   0.989359259635128   0.951850833814119   0.016568725116982
   0.489359259635128   0.451850833814119   0.516568725116982
   0.989359259635128   0.451850833814119   0.516568725116982
   0.489359259635128   0.951850833814119   0.516568725116982
   0.989359259635128   0.951850833814119   0.516568725116982
   0.239359193359655   0.298149761986721   0.016568921260877
   0.739359193359655   0.298149761986721   0.016568921260877
   0.239359193359655   0.798149761986721   0.016568921260877
   0.739359193359655   0.798149761986721   0.016568921260877
   0.239359193359655   0.298149761986721   0.516568921260877
   0.739359193359655   0.298149761986721   0.516568921260877
   0.239359193359655   0.798149761986721   0.516568921260877
   0.739359193359655   0.798149761986721   0.516568921260877
   0.260640359284475   0.201850366461256   0.483431051097243
   0.760640359284475   0.201850366461256   0.483431051097243
   0.260640359284475   0.701850366461256   0.483431051097243
   0.760640359284475   0.701850366461256   0.483431051097243
   0.260640359284475   0.201850366461256   0.983431051097243
   0.760640359284475   0.201850366461256   0.983431051097243
   0.260640359284475   0.701850366461256   0.983431051097243
   0.760640359284475   0.701850366461256   0.983431051097243
   0.182500631861974   0.480915498974371   0.056041418299578
   0.682500631861974   0.480915498974371   0.056041418299578
   0.182500631861974   0.980915498974371   0.056041418299578
   0.682500631861974   0.980915498974371   0.056041418299578
   0.182500631861974   0.480915498974371   0.556041418299578
   0.682500631861974   0.480915498974371   0.556041418299578
   0.182500631861974   0.980915498974371   0.556041418299578
   0.682500631861974   0.980915498974371   0.556041418299578
   0.317498889758807   0.019084624991907   0.443958356353486
   0.817498889758806   0.019084624991907   0.443958356353486
   0.317498889758807   0.519084624991907   0.443958356353486
   0.817498889758806   0.519084624991907   0.443958356353486
   0.317498889758807   0.019084624991907   0.943958356353486
   0.817498889758806   0.019084624991907   0.943958356353486
   0.317498889758807   0.519084624991907   0.943958356353486
   0.817498889758806   0.519084624991907   0.943958356353486
   0.067498378747278   0.230914787319404   0.443956124973195
   0.567498378747278   0.230914787319404   0.443956124973195
   0.067498378747278   0.730914787319404   0.443956124973195
   0.567498378747278   0.730914787319404   0.443956124973195
   0.067498378747278   0.230914787319404   0.943956124973195
   0.567498378747278   0.230914787319404   0.943956124973195
   0.067498378747278   0.730914787319404   0.943956124973195
   0.567498378747278   0.730914787319404   0.943956124973195
   0.432501185100284   0.269085330389626   0.056043880589857
   0.932501185100284   0.269085330389626   0.056043880589857
   0.432501185100284   0.769085330389626   0.056043880589857
   0.932501185100284   0.769085330389626   0.056043880589857
   0.432501185100284   0.269085330389626   0.556043880589857
   0.932501185100284   0.269085330389626   0.556043880589857
   0.432501185100284   0.769085330389626   0.556043880589857
   0.932501185100284   0.769085330389626   0.556043880589857
   0.136027870005045   0.109435201941813   0.024993196770671
   0.636027870005045   0.109435201941813   0.024993196770671
   0.136027870005045   0.609435201941813   0.024993196770671
   0.636027870005045   0.609435201941813   0.024993196770671
   0.136027870005045   0.109435201941813   0.524993196770671
   0.636027870005045   0.109435201941813   0.524993196770671
   0.136027870005045   0.609435201941813   0.524993196770671
   0.636027870005045   0.609435201941813   0.524993196770671
   0.363971694743099   0.390564926603877   0.475006859772960
   0.863971694743099   0.390564926603877   0.475006859772960
   0.363971694743099   0.890564926603877   0.475006859772960
   0.863971694743099   0.890564926603877   0.475006859772960
   0.363971694743099   0.390564926603877   0.975006859772960
   0.863971694743099   0.390564926603877   0.975006859772960
   0.363971694743099   0.890564926603877   0.975006859772960
   0.863971694743099   0.890564926603877   0.975006859772960
   0.113971354498907   0.359434937267768   0.475004060119729
   0.613971354498907   0.359434937267768   0.475004060119729
   0.113971354498907   0.859434937267768   0.475004060119729
   0.613971354498907   0.859434937267768   0.475004060119729
   0.113971354498907   0.359434937267768   0.975004060119729
   0.613971354498907   0.359434937267768   0.975004060119729
   0.113971354498907   0.859434937267768   0.975004060119729
   0.613971354498907   0.859434937267768   0.975004060119729
   0.386028192603496   0.140565182903725   0.024995895759427
   0.886028192603496   0.140565182903725   0.024995895759427
   0.386028192603496   0.640565182903725   0.024995895759427
   0.886028192603496   0.640565182903725   0.024995895759427
   0.386028192603496   0.140565182903725   0.524995895759427
   0.886028192603496   0.140565182903725   0.524995895759427
   0.386028192603496   0.640565182903725   0.524995895759427
   0.886028192603496   0.640565182903725   0.524995895759427
   0.055368409489948   0.052703717566475   0.498716367882889
   0.555368409489948   0.052703717566475   0.498716367882889
   0.055368409489948   0.552703717566475   0.498716367882889
   0.555368409489948   0.552703717566475   0.498716367882889
   0.055368409489948   0.052703717566475   0.998716367882889
   0.555368409489948   0.052703717566475   0.998716367882889
   0.055368409489948   0.552703717566475   0.998716367882889
   0.555368409489948   0.552703717566475   0.998716367882889
   0.444631140035374   0.447296411059707   0.001283572468451
   0.944631140035374   0.447296411059707   0.001283572468451
   0.444631140035374   0.947296411059707   0.001283572468451
   0.944631140035374   0.947296411059707   0.001283572468451
   0.444631140035374   0.447296411059707   0.501283572468451
   0.944631140035374   0.447296411059707   0.501283572468451
   0.444631140035374   0.947296411059707   0.501283572468451
   0.944631140035374   0.947296411059707   0.501283572468451
   0.194630995778948   0.302703986665761   0.001282962249326
   0.694630995778948   0.302703986665761   0.001282962249326
   0.194630995778948   0.802703986665761   0.001282962249326
   0.694630995778948   0.802703986665761   0.001282962249326
   0.194630995778948   0.302703986665761   0.501282962249326
   0.694630995778948   0.302703986665761   0.501282962249326
   0.194630995778948   0.802703986665761   0.501282962249326
   0.694630995778948   0.802703986665761   0.501282962249326
   0.305368548888874   0.197296138871791   0.498716951215515
   0.805368548888874   0.197296138871791   0.498716951215515
   0.305368548888874   0.697296138871791   0.498716951215515
   0.805368548888874   0.697296138871791   0.498716951215515
   0.305368548888874   0.197296138871791   0.998716951215515
   0.805368548888874   0.197296138871791   0.998716951215515
   0.305368548888874   0.697296138871791   0.998716951215515
   0.805368548888874   0.697296138871791   0.998716951215515
   0.041367425847620   0.143869597345939   0.485647150724609
   0.541367425847620   0.143869597345939   0.485647150724609
   0.041367425847620   0.643869597345939   0.485647150724609
   0.541367425847620   0.643869597345939   0.485647150724609
   0.041367425847620   0.143869597345939   0.985647150724609
   0.541367425847620   0.143869597345939   0.985647150724609
   0.041367425847620   0.643869597345939   0.985647150724609
   0.541367425847620   0.643869597345939   0.985647150724609
   0.458632152636687   0.356130536933498   0.014353004451435
   0.958632152636687   0.356130536933498   0.014353004451435
   0.458632152636687   0.856130536933498   0.014353004451435
   0.958632152636687   0.856130536933498   0.014353004451435
   0.458632152636687   0.356130536933498   0.514353004451436
   0.958632152636687   0.356130536933498   0.514353004451436
   0.458632152636687   0.856130536933498   0.514353004451436
   0.958632152636687   0.856130536933498   0.514353004451436
   0.208631944709856   0.393870044931387   0.014350875971807
   0.708631944709856   0.393870044931387   0.014350875971807
   0.208631944709856   0.893870044931387   0.014350875971807
   0.708631944709856   0.893870044931387   0.014350875971807
   0.208631944709856   0.393870044931387   0.514350875971807
   0.708631944709856   0.393870044931387   0.514350875971807
   0.208631944709856   0.893870044931387   0.514350875971807
   0.708631944709856   0.893870044931387   0.514350875971807
   0.291367593728337   0.106130082337398   0.485649025497680
   0.791367593728337   0.106130082337398   0.485649025497680
   0.291367593728337   0.606130082337398   0.485649025497680
   0.791367593728337   0.606130082337398   0.485649025497680
   0.291367593728337   0.106130082337398   0.985649025497680
   0.791367593728337   0.106130082337398   0.985649025497680
   0.291367593728337   0.606130082337398   0.985649025497680
   0.791367593728337   0.606130082337398   0.985649025497680
   0.065601876194660   0.461752490682060   0.008267165598652
   0.565601876194661   0.461752490682060   0.008267165598652
   0.065601876194660   0.961752490682060   0.008267165598652
   0.565601876194661   0.961752490682060   0.008267165598652
   0.065601876194660   0.461752490682060   0.508267165598652
   0.565601876194661   0.461752490682060   0.508267165598652
   0.065601876194660   0.961752490682060   0.508267165598652
   0.565601876194661   0.961752490682060   0.508267165598652
   0.434397674639425   0.038247633015307   0.491732841794080
   0.934397674639425   0.038247633015307   0.491732841794080
   0.434397674639425   0.538247633015307   0.491732841794080
   0.934397674639425   0.538247633015307   0.491732841794080
   0.434397674639425   0.038247633015307   0.991732841794080
   0.934397674639425   0.038247633015307   0.991732841794080
   0.434397674639425   0.538247633015307   0.991732841794080
   0.934397674639425   0.538247633015307   0.991732841794080
   0.184397310371068   0.211752661149441   0.491731575138331
   0.684397310371068   0.211752661149441   0.491731575138331
   0.184397310371068   0.711752661149441   0.491731575138331
   0.684397310371068   0.711752661149441   0.491731575138331
   0.184397310371068   0.211752661149441   0.991731575138332
   0.684397310371068   0.211752661149441   0.991731575138332
   0.184397310371068   0.711752661149441   0.991731575138332
   0.684397310371068   0.711752661149441   0.991731575138332
   0.315602235526466   0.288247460726752   0.008268288545875
   0.815602235526466   0.288247460726752   0.008268288545875
   0.315602235526466   0.788247460726752   0.008268288545875
   0.815602235526466   0.788247460726752   0.008268288545875
   0.315602235526466   0.288247460726752   0.508268288545875
   0.815602235526466   0.288247460726752   0.508268288545875
   0.315602235526466   0.788247460726752   0.508268288545875
   0.815602235526466   0.788247460726752   0.508268288545875
