 O  N  C  H 
        1.0000000000
  14.293468752267044   0.000002917521173  -0.047452948208312
  -0.000004565974256  18.004249266085488   0.000028035149689
  -1.600083781837531  -0.000018339103196  12.086274358215167
   32   16  128  144
 Direct
   0.079149069864072   0.459664529981923   0.218874495059306
   0.579149069864072   0.459664529981923   0.218874495059306
   0.079149069864072   0.959664529981923   0.218874495059306
   0.579149069864072   0.959664529981923   0.218874495059306
   0.170850904975894   0.209664536878958   0.281125498614583
   0.670850904975894   0.209664536878958   0.281125498614583
   0.170850904975894   0.709664536878958   0.281125498614583
   0.670850904975894   0.709664536878958   0.281125498614583
   0.420850927744731   0.040335472239878   0.781125502080392
   0.920850927744731   0.040335472239878   0.781125502080392
   0.420850927744731   0.540335472239878   0.781125502080392
   0.920850927744731   0.540335472239878   0.781125502080392
   0.329149096529527   0.290335459930414   0.718874498870592
   0.829149096529527   0.290335459930414   0.718874498870592
   0.329149096529527   0.790335459930414   0.718874498870592
   0.829149096529527   0.790335459930414   0.718874498870592
   0.173475375460745   0.245126436481862   0.807534996406640
   0.673475375460745   0.245126436481862   0.807534996406640
   0.173475375460745   0.745126436481862   0.807534996406640
   0.673475375460745   0.745126436481862   0.807534996406640
   0.076524647549417   0.495126419786115   0.692465045137130
   0.576524647549417   0.495126419786115   0.692465045137130
   0.076524647549417   0.995126419786115   0.692465045137130
   0.576524647549417   0.995126419786115   0.692465045137130
   0.326524628229657   0.254873563048223   0.192465008235347
   0.826524628229657   0.254873563048223   0.192465008235347
   0.326524628229657   0.754873563048223   0.192465008235347
   0.826524628229657   0.754873563048223   0.192465008235347
   0.423475349456276   0.004873577022163   0.307534952180339
   0.923475349456276   0.004873577022163   0.307534952180339
   0.423475349456276   0.504873577022163   0.307534952180339
   0.923475349456276   0.504873577022163   0.307534952180339
   0.024220134498023   0.279700461458165   0.838712585219718
   0.524220134498023   0.279700461458165   0.838712585219718
   0.024220134498023   0.779700461458165   0.838712585219718
   0.524220134498023   0.779700461458165   0.838712585219718
   0.225779882767199   0.029700456175191   0.661287427274679
   0.725779882767199   0.029700456175191   0.661287427274679
   0.225779882767199   0.529700456175191   0.661287427274679
   0.725779882767199   0.529700456175191   0.661287427274679
   0.475779867824822   0.220299538507949   0.161287413642454
   0.975779867824822   0.220299538507949   0.161287413642454
   0.475779867824822   0.720299538507949   0.161287413642454
   0.975779867824822   0.720299538507949   0.161287413642454
   0.274220114188163   0.470299546139049   0.338712576153351
   0.774220114188163   0.470299546139049   0.338712576153351
   0.274220114188163   0.970299546139049   0.338712576153351
   0.774220114188163   0.970299546139049   0.338712576153351
   0.042329492546227   0.324459603886280   0.935706617379668
   0.542329492546227   0.324459603886280   0.935706617379668
   0.042329492546227   0.824459603886280   0.935706617379668
   0.542329492546227   0.824459603886280   0.935706617379668
   0.207670514583168   0.074459599341671   0.564293389130813
   0.707670514583168   0.074459599341671   0.564293389130813
   0.207670514583168   0.574459599341671   0.564293389130813
   0.707670514583168   0.574459599341671   0.564293389130813
   0.457670507941902   0.175540396918704   0.064293381120490
   0.957670507941902   0.175540396918704   0.064293381120490
   0.457670507941902   0.675540396918704   0.064293381120490
   0.957670507941902   0.675540396918704   0.064293381120490
   0.292329483808728   0.425540401191372   0.435706612458126
   0.792329483808728   0.425540401191372   0.435706612458126
   0.292329483808728   0.925540401191372   0.435706612458126
   0.792329483808728   0.925540401191372   0.435706612458126
   0.128258736147706   0.325077998520179   0.006813262562342
   0.628258736147706   0.325077998520179   0.006813262562342
   0.128258736147706   0.825077998520179   0.006813262562342
   0.628258736147706   0.825077998520179   0.006813262562342
   0.121741260867273   0.075077995969191   0.493186762874884
   0.621741260867273   0.075077995969191   0.493186762874884
   0.121741260867273   0.575077995969191   0.493186762874884
   0.621741260867273   0.575077995969191   0.493186762874884
   0.371741263095156   0.174922001568653   0.993186738366515
   0.871741263095156   0.174922001568653   0.993186738366515
   0.371741263095156   0.674922001568653   0.993186738366515
   0.871741263095156   0.674922001568653   0.993186738366515
   0.378258738907112   0.424922002188321   0.506813236187506
   0.878258738907112   0.424922002188321   0.506813236187506
   0.378258738907112   0.924922002188321   0.506813236187506
   0.878258738907112   0.924922002188321   0.506813236187506
   0.138814550974237   0.370347547278733   0.100841356829385
   0.638814550974237   0.370347547278733   0.100841356829385
   0.138814550974237   0.870347547278733   0.100841356829385
   0.638814550974237   0.870347547278733   0.100841356829385
   0.111185434715430   0.120347547572501   0.399158662464939
   0.611185434715430   0.120347547572501   0.399158662464939
   0.111185434715430   0.620347547572501   0.399158662464939
   0.611185434715430   0.620347547572501   0.399158662464939
   0.361185447454066   0.129652453330944   0.899158643447347
   0.861185447454066   0.129652453330944   0.899158643447347
   0.361185447454066   0.629652453330944   0.899158643447347
   0.861185447454066   0.629652453330944   0.899158643447347
   0.388814565934065   0.379652449132485   0.600841334841124
   0.888814565934065   0.379652449132485   0.600841334841124
   0.388814565934065   0.879652449132485   0.600841334841124
   0.888814565934065   0.879652449132485   0.600841334841124
   0.064107507299475   0.415062519907799   0.125353145806759
   0.564107507299475   0.415062519907799   0.125353145806759
   0.064107507299475   0.915062519907799   0.125353145806759
   0.564107507299475   0.915062519907799   0.125353145806759
   0.185892477118649   0.165062521891669   0.374646850567296
   0.685892477118649   0.165062521891669   0.374646850567296
   0.185892477118649   0.665062521891669   0.374646850567296
   0.685892477118649   0.665062521891669   0.374646850567296
   0.435892491469182   0.084937482054514   0.874646851654794
   0.935892491469182   0.084937482054514   0.874646851654794
   0.435892491469182   0.584937482054514   0.874646851654794
   0.935892491469182   0.584937482054514   0.874646851654794
   0.314107523178249   0.334937475757148   0.625353148090624
   0.814107523178249   0.334937475757148   0.625353148090624
   0.314107523178249   0.834937475757148   0.625353148090624
   0.814107523178249   0.834937475757148   0.625353148090624
   0.477769747941518   0.413642185340251   0.055562737888353
   0.977769747941518   0.413642185340251   0.055562737888353
   0.477769747941518   0.913642185340251   0.055562737888353
   0.977769747941518   0.913642185340251   0.055562737888353
   0.272230245873094   0.163642185459942   0.444437240038582
   0.772230245873094   0.163642185459942   0.444437240038582
   0.272230245873094   0.663642185459942   0.444437240038582
   0.772230245873094   0.663642185459942   0.444437240038582
   0.022230252054356   0.086357817627950   0.944437257150776
   0.522230252054356   0.086357817627950   0.944437257150776
   0.022230252054356   0.586357817627950   0.944437257150776
   0.522230252054356   0.586357817627950   0.944437257150776
   0.227769753219430   0.336357814182629   0.555562760992981
   0.727769753219430   0.336357814182629   0.555562760992981
   0.227769753219430   0.836357814182629   0.555562760992981
   0.727769753219430   0.836357814182629   0.555562760992981
   0.467232994052747   0.368654119531856   0.961703539029894
   0.967232994052747   0.368654119531856   0.961703539029894
   0.467232994052747   0.868654119531856   0.961703539029894
   0.967232994052747   0.868654119531856   0.961703539029894
   0.282767011764913   0.118654115944654   0.538296443509224
   0.782767011764913   0.118654115944654   0.538296443509224
   0.282767011764913   0.618654115944654   0.538296443509224
   0.782767011764913   0.618654115944654   0.538296443509224
   0.032767006731987   0.131345882965698   0.038296456259098
   0.532767006731987   0.131345882965698   0.038296456259098
   0.032767006731987   0.631345882965698   0.038296456259098
   0.532767006731987   0.631345882965698   0.038296456259098
   0.217232986476211   0.381345885090180   0.461703559110695
   0.717232986476211   0.381345885090180   0.461703559110695
   0.217232986476211   0.881345885090180   0.461703559110695
   0.717232986476211   0.881345885090180   0.461703559110695
   0.085715078254485   0.243736486604515   0.781051969369999
   0.585715078254485   0.243736486604515   0.781051969369999
   0.085715078254485   0.743736486604515   0.781051969369999
   0.585715078254485   0.743736486604515   0.781051969369999
   0.164284945775117   0.493736478370742   0.718948062057120
   0.664284945775117   0.493736478370742   0.718948062057120
   0.164284945775117   0.993736478370742   0.718948062057120
   0.664284945775117   0.993736478370742   0.718948062057120
   0.414284925702700   0.256263512656459   0.218948032469288
   0.914284925702700   0.256263512656459   0.218948032469288
   0.414284925702700   0.756263512656459   0.218948032469288
   0.914284925702700   0.756263512656459   0.218948032469288
   0.335715050949945   0.006263521776210   0.281051938661429
   0.835715050949945   0.006263521776210   0.281051938661429
   0.335715050949945   0.506263521776210   0.281051938661429
   0.835715050949945   0.506263521776210   0.281051938661429
   0.040653484793397   0.200295912925154   0.680530954643310
   0.540653484793397   0.200295912925154   0.680530954643310
   0.040653484793397   0.700295912925154   0.680530954643310
   0.540653484793397   0.700295912925154   0.680530954643310
   0.209346549086415   0.450295912824047   0.819469085826659
   0.709346549086415   0.450295912824047   0.819469085826659
   0.209346549086415   0.950295912824047   0.819469085826659
   0.709346549086415   0.950295912824047   0.819469085826659
   0.459346521585007   0.299704085247001   0.319469047347257
   0.959346521585007   0.299704085247001   0.319469047347257
   0.459346521585007   0.799704085247001   0.319469047347257
   0.959346521585007   0.799704085247001   0.319469047347257
   0.290653447181391   0.049704088702893   0.180530916720195
   0.790653447181391   0.049704088702893   0.180530916720195
   0.290653447181391   0.549704088702893   0.180530916720195
   0.790653447181391   0.549704088702893   0.180530916720195
   0.019617510783652   0.481135702214303   0.238104980219544
   0.519617510783652   0.481135702214303   0.238104980219544
   0.019617510783652   0.981135702214303   0.238104980219544
   0.519617510783652   0.981135702214303   0.238104980219544
   0.230382464005792   0.231135704953996   0.261894994392605
   0.730382464005792   0.231135704953996   0.261894994392605
   0.230382464005792   0.731135704953996   0.261894994392605
   0.730382464005792   0.731135704953996   0.261894994392605
   0.480382486055850   0.018864298452175   0.761895017236529
   0.980382486055850   0.018864298452175   0.761895017236529
   0.480382486055850   0.518864298452175   0.761895017236529
   0.980382486055850   0.518864298452175   0.761895017236529
   0.269617537825043   0.268864293331989   0.738105006560599
   0.769617537825043   0.268864293331989   0.738105006560599
   0.269617537825043   0.768864293331989   0.738105006560599
   0.769617537825043   0.768864293331989   0.738105006560599
   0.186336289530095   0.290781048800785  -0.010677376325339
   0.686336289530095   0.290781048800785  -0.010677376325339
   0.186336289530095   0.790781048800785  -0.010677376325339
   0.686336289530095   0.790781048800785  -0.010677376325339
   0.063663708598056   0.040781045657760   0.510677422185120
   0.563663708598056   0.040781045657760   0.510677422185120
   0.063663708598056   0.540781045657760   0.510677422185120
   0.563663708598056   0.540781045657760   0.510677422185120
   0.313663709344628   0.209218950362742   1.010677379206694
   0.813663709344628   0.209218950362742   1.010677379206694
   0.313663709344628   0.709218950362743   1.010677379206694
   0.813663709344628   0.709218950362743   1.010677379206694
   0.436336291594041   0.459218951813573   0.489322576167455
   0.936336291594041   0.459218951813573   0.489322576167455
   0.436336291594041   0.959218951813573   0.489322576167455
   0.936336291594041   0.959218951813573   0.489322576167455
   0.204961271863569   0.369611151469645   0.155964621221299
   0.704961271863569   0.369611151469645   0.155964621221299
   0.204961271863569   0.869611151469645   0.155964621221299
   0.704961271863569   0.869611151469645   0.155964621221299
   0.045038706394640   0.119611152048201   0.344035411637675
   0.545038706394640   0.119611152048201   0.344035411637675
   0.045038706394640   0.619611152048201   0.344035411637675
   0.545038706394640   0.619611152048201   0.344035411637675
   0.295038725638348   0.130388848585249   0.844035380728071
   0.795038725638348   0.130388848585249   0.844035380728071
   0.295038725638348   0.630388848585249   0.844035380728071
   0.795038725638348   0.630388848585249   0.844035380728071
   0.454961295642322   0.380388842396888   0.655964583265984
   0.954961295642321   0.380388842396888   0.655964583265984
   0.454961295642322   0.880388842396888   0.655964583265984
   0.954961295642321   0.880388842396888   0.655964583265984
   0.419501634263045   0.447861758555148   0.073745290269321
   0.919501634263045   0.447861758555148   0.073745290269321
   0.419501634263045   0.947861758555148   0.073745290269321
   0.919501634263045   0.947861758555148   0.073745290269321
   0.330498357992584   0.197861759812469   0.426254669234317
   0.830498357992584   0.197861759812469   0.426254669234317
   0.330498357992584   0.697861759812469   0.426254669234317
   0.830498357992584   0.697861759812469   0.426254669234317
   0.080498366187974   0.052138245965221   0.926254702188813
   0.580498366187974   0.052138245965221   0.926254702188813
   0.080498366187974   0.552138245965221   0.926254702188813
   0.580498366187974   0.552138245965221   0.926254702188813
   0.169501640751624   0.302138240115396   0.573745331787068
   0.669501640751624   0.302138240115396   0.573745331787068
   0.169501640751624   0.802138240115396   0.573745331787068
   0.669501640751624   0.802138240115396   0.573745331787068
   0.400244615656083   0.367540271809531   0.908083109168022
   0.900244615656083   0.367540271809531   0.908083109168022
   0.400244615656083   0.867540271809531   0.908083109168022
   0.900244615656083   0.867540271809531   0.908083109168022
   0.349755398200759   0.117540266734247   0.591916858014614
   0.849755398200759   0.117540266734247   0.591916858014614
   0.349755398200759   0.617540266734247   0.591916858014614
   0.849755398200759   0.617540266734247   0.591916858014614
   0.099755386170442   0.132459731795235   0.091916883975661
   0.599755386170442   0.132459731795235   0.091916883975661
   0.099755386170442   0.632459731795235   0.091916883975661
   0.599755386170442   0.632459731795235   0.091916883975661
   0.150244599240853   0.382459735830332   0.408083146054226
   0.650244599240853   0.382459735830332   0.408083146054226
   0.150244599240853   0.882459735830332   0.408083146054226
   0.650244599240853   0.882459735830332   0.408083146054226
   0.454927210369987   0.276839342499165   0.805711583613082
   0.954927210369987   0.276839342499165   0.805711583613082
   0.454927210369987   0.776839342499165   0.805711583613082
   0.954927210369987   0.776839342499165   0.805711583613082
   0.295072808941298   0.026839341602564   0.694288420297436
   0.795072808941298   0.026839341602564   0.694288420297436
   0.295072808941298   0.526839341602564   0.694288420297436
   0.795072808941298   0.526839341602564   0.694288420297436
   0.045072792289749   0.223160656869878   0.194288413808630
   0.545072792289749   0.223160656869878   0.194288413808630
   0.045072792289749   0.723160656869878   0.194288413808630
   0.545072792289749   0.723160656869878   0.194288413808630
   0.204927187448643   0.473160662094556   0.305711585584829
   0.704927187448643   0.473160662094556   0.305711585584829
   0.204927187448643   0.973160662094556   0.305711585584829
   0.704927187448643   0.973160662094556   0.305711585584829
   0.072795806092119   0.216675925655688   0.607828051119989
   0.572795806092119   0.216675925655688   0.607828051119989
   0.072795806092119   0.716675925655688   0.607828051119989
   0.572795806092119   0.716675925655688   0.607828051119989
   0.177204213390025   0.466675910186578   0.892171981518943
   0.677204213390025   0.466675910186578   0.892171981518943
   0.177204213390025   0.966675910186578   0.892171981518943
   0.677204213390025   0.966675910186578   0.892171981518943
   0.427204206737832   0.283324067695200   0.392171953392609
   0.927204206737832   0.283324067695200   0.392171953392609
   0.427204206737832   0.783324067695200   0.392171953392609
   0.927204206737832   0.783324067695200   0.392171953392609
   0.322795767183306   0.033324079932524   0.107828015030143
   0.822795767183306   0.033324079932524   0.107828015030143
   0.322795767183306   0.533324079932524   0.107828015030143
   0.822795767183306   0.533324079932524   0.107828015030143
   0.055680160815174   0.141268054590594   0.694113253391074
   0.555680160815174   0.141268054590594   0.694113253391074
   0.055680160815174   0.641268054590594   0.694113253391074
   0.555680160815174   0.641268054590594   0.694113253391074
   0.194319898945808   0.391268049989152   0.805886793751397
   0.694319898945808   0.391268049989152   0.805886793751397
   0.194319898945808   0.891268049989152   0.805886793751397
   0.694319898945808   0.891268049989152   0.805886793751397
   0.444319839843472   0.358731943209876   0.305886753677209
   0.944319839843472   0.358731943209876   0.305886753677209
   0.444319839843472   0.858731943209876   0.305886753677209
   0.944319839843472   0.858731943209876   0.305886753677209
   0.305680115742538   0.108731949424870   0.194113200022953
   0.805680115742538   0.108731949424870   0.194113200022953
   0.305680115742538   0.608731949424870   0.194113200022953
   0.805680115742538   0.608731949424870   0.194113200022953
   0.464445959004270   0.207956490500704   0.663587896756225
   0.964445959004270   0.207956490500704   0.663587896756225
   0.464445959004270   0.707956490500704   0.663587896756225
   0.964445959004270   0.707956490500704   0.663587896756225
   0.285554071277144   0.457956515334322   0.836412150572145
   0.785554071277144   0.457956515334322   0.836412150572145
   0.285554071277144   0.957956515334322   0.836412150572145
   0.785554071277144   0.957956515334322   0.836412150572145
   0.035554048225005   0.292043511194921   0.336412098176533
   0.535554048225005   0.292043511194921   0.336412098176533
   0.035554048225005   0.792043511194921   0.336412098176533
   0.535554048225005   0.792043511194921   0.336412098176533
   0.214445922183043   0.042043499005072   0.163587866569641
   0.714445922183043   0.042043499005072   0.163587866569641
   0.214445922183043   0.542043499005072   0.163587866569641
   0.714445922183043   0.542043499005072   0.163587866569641
