super cell
        1.0000000000
  15.308823765620300   0.000000000000000  -0.032020683157084
   0.000000000000000  10.742368833244642   0.000000000000000
  -9.613068678293466   0.000000000000000  17.408227279773811
   96   64  128
 Direct
   0.077949131906367   0.110363553470700   0.089258595181453
   0.577949131906367   0.110363553470700   0.089258595181453
   0.077949131906367   0.610363553470700   0.089258595181453
   0.577949131906367   0.610363553470700   0.089258595181453
   0.077949131906367   0.110363553470700   0.589258595181453
   0.577949131906367   0.110363553470700   0.589258595181453
   0.077949131906367   0.610363553470700   0.589258595181453
   0.577949131906367   0.610363553470700   0.589258595181453
   0.422050868591574   0.389636444625109   0.410741406536963
   0.922050868591574   0.389636444625109   0.410741406536963
   0.422050868591574   0.889636444625109   0.410741406536963
   0.922050868591574   0.889636444625109   0.410741406536963
   0.422050868591574   0.389636444625109   0.910741406536963
   0.922050868591574   0.389636444625109   0.910741406536963
   0.422050868591574   0.889636444625109   0.910741406536963
   0.922050868591574   0.889636444625109   0.910741406536963
   0.422050902254616   0.360363557142774   0.160741422454044
   0.922050902254616   0.360363557142774   0.160741422454044
   0.422050902254616   0.860363557142774   0.160741422454044
   0.922050902254616   0.860363557142774   0.160741422454044
   0.422050902254616   0.360363557142774   0.660741422454044
   0.922050902254616   0.360363557142774   0.660741422454044
   0.422050902254616   0.860363557142774   0.660741422454044
   0.922050902254616   0.860363557142774   0.660741422454044
   0.077949099741881   0.139636425963891   0.339258574719548
   0.577949099741881   0.139636425963891   0.339258574719548
   0.077949099741881   0.639636425963891   0.339258574719548
   0.577949099741881   0.639636425963891   0.339258574719548
   0.077949099741881   0.139636425963891   0.839258574719548
   0.577949099741881   0.139636425963891   0.839258574719548
   0.077949099741881   0.639636425963891   0.839258574719548
   0.577949099741881   0.639636425963891   0.839258574719548
   0.154198414387482   0.279162167245826   0.148455976709848
   0.654198414387482   0.279162167245826   0.148455976709848
   0.154198414387482   0.779162167245826   0.148455976709848
   0.654198414387482   0.779162167245826   0.148455976709848
   0.154198414387482   0.279162167245826   0.648455976709848
   0.654198414387482   0.279162167245826   0.648455976709848
   0.154198414387482   0.779162167245826   0.648455976709848
   0.654198414387482   0.779162167245826   0.648455976709848
   0.345801589565491   0.220837836624525   0.351544013344490
   0.845801589565491   0.220837836624525   0.351544013344490
   0.345801589565491   0.720837836624525   0.351544013344490
   0.845801589565491   0.720837836624525   0.351544013344490
   0.345801589565491   0.220837836624525   0.851544013344490
   0.845801589565491   0.220837836624525   0.851544013344490
   0.345801589565491   0.720837836624525   0.851544013344490
   0.845801589565491   0.720837836624525   0.851544013344490
   0.345801636242233   0.029162173563670   0.101544016567782
   0.845801636242233   0.029162173563670   0.101544016567782
   0.345801636242233   0.529162173563670   0.101544016567782
   0.845801636242233   0.529162173563670   0.101544016567782
   0.345801636242233   0.029162173563670   0.601544016567782
   0.845801636242233   0.029162173563670   0.601544016567782
   0.345801636242233   0.529162173563670   0.601544016567782
   0.845801636242233   0.529162173563670   0.601544016567782
   0.154198365754786   0.470837808173282   0.398455975984597
   0.654198365754786   0.470837808173282   0.398455975984597
   0.154198365754786   0.970837808173282   0.398455975984597
   0.654198365754786   0.970837808173282   0.398455975984597
   0.154198365754786   0.470837808173282   0.898455975984597
   0.654198365754786   0.470837808173282   0.898455975984597
   0.154198365754786   0.970837808173282   0.898455975984597
   0.654198365754786   0.970837808173282   0.898455975984597
   0.158114596045870   0.275973180190205   0.080829101521235
   0.658114596045870   0.275973180190205   0.080829101521235
   0.158114596045870   0.775973180190205   0.080829101521235
   0.658114596045870   0.775973180190205   0.080829101521235
   0.158114596045870   0.275973180190205   0.580829101521235
   0.658114596045870   0.275973180190205   0.580829101521235
   0.158114596045870   0.775973180190205   0.580829101521235
   0.658114596045870   0.775973180190205   0.580829101521235
   0.341885410513310   0.224026803935493   0.419170889474394
   0.841885410513310   0.224026803935493   0.419170889474394
   0.341885410513310   0.724026803935492   0.419170889474394
   0.841885410513310   0.724026803935492   0.419170889474394
   0.341885410513310   0.224026803935493   0.919170889474394
   0.841885410513310   0.224026803935493   0.919170889474394
   0.341885410513310   0.724026803935492   0.919170889474394
   0.841885410513310   0.724026803935492   0.919170889474394
   0.341885451822712   0.025973221103465   0.169170909073881
   0.841885451822712   0.025973221103465   0.169170909073881
   0.341885451822712   0.525973221103465   0.169170909073881
   0.841885451822712   0.525973221103465   0.169170909073881
   0.341885451822712   0.025973221103465   0.669170909073881
   0.841885451822712   0.025973221103465   0.669170909073881
   0.341885451822712   0.525973221103465   0.669170909073881
   0.841885451822712   0.525973221103465   0.669170909073881
   0.158114563095811   0.474026774386255   0.330829090236903
   0.658114563095811   0.474026774386255   0.330829090236903
   0.158114563095811   0.974026774386255   0.330829090236903
   0.658114563095811   0.974026774386255   0.330829090236903
   0.158114563095811   0.474026774386255   0.830829090236903
   0.658114563095811   0.474026774386255   0.830829090236903
   0.158114563095811   0.974026774386255   0.830829090236903
   0.658114563095811   0.974026774386255   0.830829090236903
   0.109106543050226   0.168016989171520   0.043587739202191
   0.609106543050226   0.168016989171520   0.043587739202191
   0.109106543050226   0.668016989171521   0.043587739202191
   0.609106543050226   0.668016989171521   0.043587739202191
   0.109106543050226   0.168016989171520   0.543587739202191
   0.609106543050226   0.168016989171520   0.543587739202191
   0.109106543050226   0.668016989171521   0.543587739202191
   0.609106543050226   0.668016989171521   0.543587739202191
   0.390893462803669   0.331982990258480   0.456412259779104
   0.890893462803669   0.331982990258480   0.456412259779104
   0.390893462803669   0.831982990258480   0.456412259779104
   0.890893462803669   0.831982990258480   0.456412259779104
   0.390893462803669   0.331982990258480   0.956412259779104
   0.890893462803669   0.331982990258480   0.956412259779104
   0.390893462803669   0.831982990258480   0.956412259779104
   0.890893462803669   0.831982990258480   0.956412259779104
   0.390893494776056   0.418016997290047   0.206412265491000
   0.890893494776056   0.418016997290047   0.206412265491000
   0.390893494776056   0.918016997290047   0.206412265491000
   0.890893494776056   0.918016997290047   0.206412265491000
   0.390893494776056   0.418016997290047   0.706412265491000
   0.890893494776056   0.418016997290047   0.706412265491000
   0.390893494776056   0.918016997290047   0.706412265491000
   0.890893494776056   0.918016997290047   0.706412265491000
   0.109106520346006   0.081982999530157   0.293587735986840
   0.609106520346006   0.081982999530157   0.293587735986840
   0.109106520346006   0.581982999530157   0.293587735986840
   0.609106520346006   0.581982999530157   0.293587735986840
   0.109106520346006   0.081982999530157   0.793587735986840
   0.609106520346006   0.081982999530157   0.793587735986840
   0.109106520346006   0.581982999530157   0.793587735986840
   0.609106520346006   0.581982999530157   0.793587735986840
   0.103820585810609   0.174991725088349   0.153538355773544
   0.603820585810609   0.174991725088349   0.153538355773544
   0.103820585810609   0.674991725088349   0.153538355773544
   0.603820585810609   0.674991725088349   0.153538355773544
   0.103820585810609   0.174991725088349   0.653538355773544
   0.603820585810609   0.174991725088349   0.653538355773544
   0.103820585810609   0.674991725088349   0.653538355773544
   0.603820585810609   0.674991725088349   0.653538355773544
   0.396179414839577   0.325008287840818   0.346461640870403
   0.896179414839577   0.325008287840818   0.346461640870403
   0.396179414839577   0.825008287840818   0.346461640870403
   0.896179414839577   0.825008287840818   0.346461640870403
   0.396179414839577   0.325008287840818   0.846461640870403
   0.896179414839577   0.325008287840818   0.846461640870403
   0.396179414839577   0.825008287840818   0.846461640870403
   0.896179414839577   0.825008287840818   0.846461640870403
   0.396179443056927   0.424991696584394   0.096461643830435
   0.896179443056927   0.424991696584394   0.096461643830435
   0.396179443056927   0.924991696584394   0.096461643830435
   0.896179443056927   0.924991696584394   0.096461643830435
   0.396179443056927   0.424991696584394   0.596461643830435
   0.896179443056927   0.424991696584394   0.596461643830435
   0.396179443056927   0.924991696584394   0.596461643830435
   0.896179443056927   0.924991696584394   0.596461643830435
   0.103820551941101   0.075008276872678   0.403538349379416
   0.603820551941101   0.075008276872678   0.403538349379416
   0.103820551941101   0.575008276872678   0.403538349379416
   0.603820551941101   0.575008276872678   0.403538349379416
   0.103820551941101   0.075008276872678   0.903538349379416
   0.603820551941101   0.075008276872678   0.903538349379416
   0.103820551941101   0.575008276872678   0.903538349379416
   0.603820551941101   0.575008276872678   0.903538349379416
   0.101685831588123   0.135112524820227   0.492017669035214
   0.601685831588123   0.135112524820227   0.492017669035214
   0.101685831588123   0.635112524820227   0.492017669035214
   0.601685831588123   0.635112524820227   0.492017669035214
   0.101685831588123   0.135112524820227   0.992017669035214
   0.601685831588123   0.135112524820227   0.992017669035214
   0.101685831588123   0.635112524820227   0.992017669035214
   0.601685831588123   0.635112524820227   0.992017669035214
   0.398314170442867   0.364887447967773   0.007982330964786
   0.898314170442867   0.364887447967773   0.007982330964786
   0.398314170442867   0.864887447967773   0.007982330964786
   0.898314170442867   0.864887447967773   0.007982330964786
   0.398314170442867   0.364887447967773   0.507982330964786
   0.898314170442867   0.364887447967773   0.507982330964786
   0.398314170442867   0.864887447967773   0.507982330964786
   0.898314170442867   0.864887447967773   0.507982330964786
   0.398314193274644   0.385112556348799   0.257982334028032
   0.898314193274644   0.385112556348799   0.257982334028032
   0.398314193274644   0.885112556348799   0.257982334028032
   0.898314193274644   0.885112556348799   0.257982334028032
   0.398314193274644   0.385112556348799   0.757982334028032
   0.898314193274644   0.385112556348799   0.757982334028032
   0.398314193274644   0.885112556348799   0.757982334028032
   0.898314193274644   0.885112556348799   0.757982334028032
   0.101685821193999   0.114887448546524   0.242017668273981
   0.601685821193999   0.114887448546524   0.242017668273981
   0.101685821193999   0.614887448546524   0.242017668273981
   0.601685821193999   0.614887448546524   0.242017668273981
   0.101685821193999   0.114887448546524   0.742017668273981
   0.601685821193999   0.114887448546524   0.742017668273981
   0.101685821193999   0.614887448546524   0.742017668273981
   0.601685821193999   0.614887448546524   0.742017668273981
   0.038051422794035   0.023265807594605   0.074918755604932
   0.538051422794035   0.023265807594605   0.074918755604932
   0.038051422794035   0.523265807594605   0.074918755604932
   0.538051422794035   0.523265807594605   0.074918755604932
   0.038051422794035   0.023265807594605   0.574918755604932
   0.538051422794035   0.023265807594605   0.574918755604932
   0.038051422794035   0.523265807594605   0.574918755604932
   0.538051422794035   0.523265807594605   0.574918755604932
   0.461948576880018   0.476734192405395   0.425081251393648
   0.961948576880018   0.476734192405395   0.425081251393648
   0.461948576880018   0.976734192405395   0.425081251393648
   0.961948576880018   0.976734192405395   0.425081251393648
   0.461948576880018   0.476734192405395   0.925081251393648
   0.961948576880018   0.476734192405395   0.925081251393648
   0.461948576880018   0.976734192405395   0.925081251393648
   0.961948576880018   0.976734192405395   0.925081251393648
   0.461948601246834   0.273265799023207   0.175081252827580
   0.961948601246834   0.273265799023207   0.175081252827580
   0.461948601246834   0.773265799023207   0.175081252827580
   0.961948601246834   0.773265799023207   0.175081252827580
   0.461948601246834   0.273265799023207   0.675081252827580
   0.961948601246834   0.273265799023207   0.675081252827580
   0.461948601246834   0.773265799023207   0.675081252827580
   0.961948601246834   0.773265799023207   0.675081252827580
   0.038051398753166   0.226734184116367   0.324918745514063
   0.538051398753166   0.226734184116367   0.324918745514063
   0.038051398753166   0.726734184116367   0.324918745514063
   0.538051398753166   0.726734184116367   0.324918745514063
   0.038051398753166   0.226734184116367   0.824918745514063
   0.538051398753166   0.226734184116367   0.824918745514063
   0.038051398753166   0.726734184116367   0.824918745514063
   0.538051398753166   0.726734184116367   0.824918745514063
   0.184076800005794   0.348708173429245   0.193076522821499
   0.684076800005794   0.348708173429245   0.193076522821499
   0.184076800005794   0.848708173429245   0.193076522821499
   0.684076800005794   0.848708173429245   0.193076522821499
   0.184076800005794   0.348708173429245   0.693076522821499
   0.684076800005794   0.348708173429245   0.693076522821499
   0.184076800005794   0.848708173429245   0.693076522821499
   0.684076800005794   0.848708173429245   0.693076522821499
   0.315923206568485   0.151291836688872   0.306923463786173
   0.815923206568485   0.151291836688872   0.306923463786173
   0.315923206568485   0.651291836688872   0.306923463786173
   0.815923206568485   0.651291836688872   0.306923463786173
   0.315923206568485   0.151291836688872   0.806923463786174
   0.815923206568485   0.151291836688872   0.806923463786174
   0.315923206568485   0.651291836688872   0.806923463786174
   0.815923206568485   0.651291836688872   0.806923463786174
   0.315923237061345   0.098708159500007   0.056923481795416
   0.815923237061345   0.098708159500007   0.056923481795416
   0.315923237061345   0.598708159500007   0.056923481795416
   0.815923237061345   0.598708159500007   0.056923481795416
   0.315923237061345   0.098708159500007   0.556923481795416
   0.815923237061345   0.098708159500007   0.556923481795416
   0.315923237061345   0.598708159500007   0.556923481795416
   0.815923237061345   0.598708159500007   0.556923481795416
   0.184076763494900   0.401291817465014   0.443076509865449
   0.684076763494900   0.401291817465014   0.443076509865449
   0.184076763494900   0.901291817465014   0.443076509865449
   0.684076763494900   0.901291817465014   0.443076509865449
   0.184076763494900   0.401291817465014   0.943076509865449
   0.684076763494900   0.401291817465014   0.943076509865449
   0.184076763494900   0.901291817465014   0.943076509865449
   0.684076763494900   0.901291817465014   0.943076509865449
   0.190752835696375   0.338780360611504   0.057003297747007
   0.690752835696375   0.338780360611504   0.057003297747007
   0.190752835696375   0.838780360611504   0.057003297747007
   0.690752835696375   0.838780360611504   0.057003297747007
   0.190752835696375   0.338780360611504   0.557003297747007
   0.690752835696375   0.338780360611504   0.557003297747007
   0.190752835696375   0.838780360611504   0.557003297747007
   0.690752835696375   0.838780360611504   0.557003297747007
   0.309247174863125   0.161219612486940   0.442996690848814
   0.809247174863125   0.161219612486940   0.442996690848814
   0.309247174863125   0.661219612486940   0.442996690848814
   0.809247174863125   0.661219612486940   0.442996690848814
   0.309247174863125   0.161219612486940   0.942996690848814
   0.809247174863125   0.161219612486940   0.942996690848814
   0.309247174863125   0.661219612486940   0.942996690848814
   0.809247174863125   0.661219612486940   0.942996690848814
   0.309247222685586   0.088780385821688   0.192996701818215
   0.809247222685586   0.088780385821688   0.192996701818215
   0.309247222685586   0.588780385821688   0.192996701818215
   0.809247222685586   0.588780385821688   0.192996701818215
   0.309247222685586   0.088780385821688   0.692996701818215
   0.809247222685586   0.088780385821688   0.692996701818215
   0.309247222685586   0.588780385821688   0.692996701818215
   0.809247222685586   0.588780385821688   0.692996701818215
   0.190752798952913   0.411219616236431   0.307003297478262
   0.690752798952913   0.411219616236431   0.307003297478262
   0.190752798952913   0.911219616236431   0.307003297478262
   0.690752798952913   0.911219616236431   0.307003297478262
   0.190752798952913   0.411219616236431   0.807003297478262
   0.690752798952913   0.411219616236431   0.807003297478262
   0.190752798952913   0.911219616236431   0.807003297478262
   0.690752798952913   0.911219616236431   0.807003297478262
