 C  N  H 
 1.0000000000000000
    25.0000000000000000    0.0000000000000000    0.0000000000000000
     0.0000000000000000   25.0000000000000000    0.0000000000000000
     0.0000000000000000    0.0000000000000000   25.0000000000000000
 C   N   H  
   3   2   4
Cartesian
 11.8488849999999992 11.3296449999999993 12.5001549999999995
 13.5569249999999997 12.6312250000000006 12.4994349999999983
 12.4606349999999981 13.4589050000000015 12.4998649999999998
 11.3703249999999976 12.6122049999999994 12.5008449999999982
 13.1670549999999977 11.3085450000000005 12.4997650000000000
 10.3978249999999974 12.8923249999999996 12.4994149999999991
 11.1961049999999993 10.4660450000000012 12.4996549999999989
 14.6021749999999990 12.9113550000000004 12.4991549999999982
 12.3532749999999982 14.5339550000000006 12.4991549999999982
