 C  O  N  H                             
   1.0000000000000000     
    22.0000000000000000    0.0000000000000000    0.0000000000000000
     0.0000000000000000   22.0000000000000000    0.0000000000000000
     0.0000000000000000    0.0000000000000000   22.0000000000000000
   C    O    N    H 
     1     1     2     4
Direct
  0.2767904820586580  0.2841157385763253  0.1818676586431920
  0.3045623147857839  0.3324210527628679  0.1817638019741494
  0.2149461294467869  0.2797799221996868  0.1680142447664039
  0.3041844626546748  0.2285336669574889  0.1958498296326425
  0.1907969601982842  0.2454750866299449  0.1867632402896788
  0.1933533396177509  0.3202981573231583  0.1678388743797186
  0.2866543013923106  0.1903414100292125  0.1772612087112790
  0.3500642825730225  0.2302590564303983  0.1959393234211078

  0.00000000E+00  0.00000000E+00  0.00000000E+00
  0.00000000E+00  0.00000000E+00  0.00000000E+00
  0.00000000E+00  0.00000000E+00  0.00000000E+00
  0.00000000E+00  0.00000000E+00  0.00000000E+00
  0.00000000E+00  0.00000000E+00  0.00000000E+00
  0.00000000E+00  0.00000000E+00  0.00000000E+00
  0.00000000E+00  0.00000000E+00  0.00000000E+00
  0.00000000E+00  0.00000000E+00  0.00000000E+00
