 O  C  H 
 1.0000000000000000
    25.0000000000000000    0.0000000000000000    0.0000000000000000
     0.0000000000000000   25.0000000000000000    0.0000000000000000
     0.0000000000000000    0.0000000000000000   25.0000000000000000
 O   C   H  
   4   4   2
Cartesian
 13.7227218464728580 11.3126513777448992 12.5003298143883548
 13.7257468053578471 14.5516433800790974 12.4997940610076093
 10.4519514151901554 11.2475717386857355 12.5010956146374177
 10.4828135607285251 14.6477700004270694 12.5005268051374525
 12.7391959427967674 12.2298476384783275 12.5004053456640190
 12.7734808145984129 13.6086828111600315 12.5001696587413971
 11.2516123975702307 12.1573929870828170 12.5007607197207680
 11.2746134371338727 13.7387354347461965 12.5004941851109095
 13.3277297475065470 10.4203585206027913 12.5005683968784904
 14.6139340326448064 14.1498461109930087 12.4996553987135677
