 N  C  H 
        1.0000000000
  18.843892544496633  -0.000174317462526   0.000304221044840
  -0.000108056087590  11.567945438249517   0.000005965753075
   0.000182611631160   0.000006049763113  11.269524552491756
   48   96   96
 Direct
   0.074771481913537   0.499996490153011   0.333335381013453
   0.574771481913537   0.499996490153011   0.333335381013453
   0.074771481913537   0.999996490153011   0.333335381013453
   0.574771481913537   0.999996490153011   0.333335381013453
   0.074771481913537   0.499996490153011   0.666668714346787
   0.574771481913537   0.499996490153011   0.666668714346787
   0.074771481913537   0.999996490153011   0.666668714346787
   0.574771481913537   0.999996490153011   0.666668714346787
   0.074771481913537   0.499996490153011   1.000002047680120
   0.574771481913537   0.499996490153011   1.000002047680120
   0.074771481913537   0.999996490153011   1.000002047680120
   0.574771481913537   0.999996490153011   1.000002047680120
   0.425229598323586   0.000003911327720  -0.000001305852219
   0.925229598323586   0.000003911327720  -0.000001305852219
   0.425229598323586   0.500003911327720  -0.000001305852219
   0.925229598323586   0.500003911327720  -0.000001305852219
   0.425229598323586   0.000003911327720   0.333332027481115
   0.925229598323586   0.000003911327720   0.333332027481115
   0.425229598323586   0.500003911327720   0.333332027481115
   0.925229598323586   0.500003911327720   0.333332027481115
   0.425229598323586   0.000003911327720   0.666665360814448
   0.925229598323586   0.000003911327720   0.666665360814448
   0.425229598323586   0.500003911327720   0.666665360814448
   0.925229598323586   0.500003911327720   0.666665360814448
   0.324771512823187   0.250005186419408   0.166659974807066
   0.824771512823187   0.250005186419408   0.166659974807066
   0.324771512823187   0.750005186419408   0.166659974807066
   0.824771512823187   0.750005186419408   0.166659974807066
   0.324771512823187   0.250005186419408   0.499993308140400
   0.824771512823187   0.250005186419408   0.499993308140400
   0.324771512823187   0.750005186419408   0.499993308140400
   0.824771512823187   0.750005186419408   0.499993308140400
   0.324771512823187   0.250005186419408   0.833326641473733
   0.824771512823187   0.250005186419408   0.833326641473733
   0.324771512823187   0.750005186419408   0.833326641473733
   0.824771512823187   0.750005186419408   0.833326641473733
   0.175229626882009   0.249995309320661   0.166673680077461
   0.675229626882009   0.249995309320661   0.166673680077461
   0.175229626882009   0.749995309320661   0.166673680077461
   0.675229626882009   0.749995309320661   0.166673680077461
   0.175229626882009   0.249995309320661   0.500007013410794
   0.675229626882009   0.249995309320661   0.500007013410794
   0.175229626882009   0.749995309320661   0.500007013410794
   0.675229626882009   0.749995309320661   0.500007013410794
   0.175229626882009   0.249995309320661   0.833340346744127
   0.675229626882009   0.249995309320661   0.833340346744127
   0.175229626882009   0.749995309320661   0.833340346744127
   0.675229626882009   0.749995309320661   0.833340346744127
   0.037115870617059   0.090597789570887   0.040877296518266
   0.537115870617059   0.090597789570887   0.040877296518266
   0.037115870617059   0.590597789570887   0.040877296518266
   0.537115870617059   0.590597789570887   0.040877296518266
   0.037115870617059   0.090597789570887   0.374210629851599
   0.537115870617059   0.090597789570887   0.374210629851599
   0.037115870617059   0.590597789570887   0.374210629851599
   0.537115870617059   0.590597789570887   0.374210629851599
   0.037115870617059   0.090597789570887   0.707543963184932
   0.537115870617059   0.090597789570887   0.707543963184932
   0.037115870617059   0.590597789570887   0.707543963184932
   0.537115870617059   0.590597789570887   0.707543963184932
   0.037112667422172   0.409399005906612   0.292458312040059
   0.537112667422172   0.409399005906612   0.292458312040059
   0.037112667422172   0.909399005906611   0.292458312040059
   0.537112667422172   0.909399005906611   0.292458312040059
   0.037112667422172   0.409399005906612   0.625791645373393
   0.537112667422172   0.409399005906612   0.625791645373393
   0.037112667422172   0.909399005906611   0.625791645373393
   0.537112667422172   0.909399005906611   0.625791645373393
   0.037112667422172   0.409399005906612   0.959124978706726
   0.537112667422172   0.409399005906612   0.959124978706726
   0.037112667422172   0.909399005906611   0.959124978706726
   0.537112667422172   0.909399005906611   0.959124978706726
   0.462888413416079   0.090601364284713   0.040875833020036
   0.962888413416079   0.090601364284713   0.040875833020036
   0.462888413416079   0.590601364284713   0.040875833020036
   0.962888413416079   0.590601364284713   0.040875833020036
   0.462888413416079   0.090601364284713   0.374209166353370
   0.962888413416079   0.090601364284713   0.374209166353370
   0.462888413416079   0.590601364284713   0.374209166353370
   0.962888413416079   0.590601364284713   0.374209166353370
   0.462888413416079   0.090601364284713   0.707542499686703
   0.962888413416079   0.090601364284713   0.707542499686703
   0.462888413416079   0.590601364284713   0.707542499686703
   0.962888413416079   0.590601364284713   0.707542499686703
   0.462885207862329   0.409402632340309   0.292456723137040
   0.962885207862329   0.409402632340309   0.292456723137040
   0.462885207862329   0.909402632340309   0.292456723137040
   0.962885207862329   0.909402632340309   0.292456723137040
   0.462885207862329   0.409402632340309   0.625790056470374
   0.962885207862329   0.409402632340309   0.625790056470374
   0.462885207862329   0.909402632340309   0.625790056470374
   0.962885207862329   0.909402632340309   0.625790056470374
   0.462885207862329   0.409402632340309   0.959123389803707
   0.962885207862329   0.409402632340309   0.959123389803707
   0.462885207862329   0.909402632340309   0.959123389803707
   0.962885207862329   0.909402632340309   0.959123389803707
   0.287116094693538   0.159403277632024   0.207539765377534
   0.787116094693538   0.159403277632024   0.207539765377534
   0.287116094693538   0.659403277632024   0.207539765377534
   0.787116094693538   0.659403277632024   0.207539765377534
   0.287116094693538   0.159403277632024   0.540873098710867
   0.787116094693538   0.159403277632024   0.540873098710867
   0.287116094693538   0.659403277632024   0.540873098710867
   0.787116094693538   0.659403277632024   0.540873098710867
   0.287116094693538   0.159403277632024   0.874206432044201
   0.787116094693538   0.159403277632024   0.874206432044201
   0.287116094693538   0.659403277632024   0.874206432044201
   0.787116094693538   0.659403277632024   0.874206432044201
   0.212888641830863   0.159398357907064   0.207546385389939
   0.712888641830863   0.159398357907064   0.207546385389939
   0.212888641830863   0.659398357907064   0.207546385389939
   0.712888641830863   0.659398357907064   0.207546385389939
   0.212888641830863   0.159398357907064   0.540879718723272
   0.712888641830863   0.159398357907064   0.540879718723272
   0.212888641830863   0.659398357907064   0.540879718723272
   0.712888641830863   0.659398357907064   0.540879718723272
   0.212888641830863   0.159398357907064   0.874213052056605
   0.712888641830863   0.159398357907064   0.874213052056605
   0.212888641830863   0.659398357907064   0.874213052056605
   0.712888641830863   0.659398357907064   0.874213052056605
   0.212885041389752   0.340597263888793   0.125793973943882
   0.712885041389752   0.340597263888793   0.125793973943882
   0.212885041389752   0.840597263888793   0.125793973943882
   0.712885041389752   0.840597263888793   0.125793973943882
   0.212885041389752   0.340597263888793   0.459127307277215
   0.712885041389752   0.340597263888793   0.459127307277215
   0.212885041389752   0.840597263888793   0.459127307277215
   0.712885041389752   0.840597263888793   0.459127307277215
   0.212885041389752   0.340597263888793   0.792460640610549
   0.712885041389752   0.340597263888793   0.792460640610549
   0.212885041389752   0.840597263888793   0.792460640610549
   0.712885041389752   0.840597263888793   0.792460640610549
   0.287112500624579   0.340602103663786   0.125787175958054
   0.787112500624579   0.340602103663786   0.125787175958054
   0.287112500624579   0.840602103663786   0.125787175958054
   0.787112500624579   0.840602103663786   0.125787175958054
   0.287112500624579   0.340602103663786   0.459120509291387
   0.787112500624579   0.340602103663786   0.459120509291387
   0.287112500624579   0.840602103663786   0.459120509291387
   0.787112500624579   0.840602103663786   0.459120509291387
   0.287112500624579   0.340602103663786   0.792453842624720
   0.787112500624579   0.340602103663786   0.792453842624720
   0.287112500624579   0.840602103663786   0.792453842624720
   0.787112500624579   0.840602103663786   0.792453842624720
   0.067066055122901   0.163635265864695   0.074923152137955
   0.567066055122901   0.163635265864695   0.074923152137955
   0.067066055122901   0.663635265864695   0.074923152137955
   0.567066055122901   0.663635265864695   0.074923152137955
   0.067066055122901   0.163635265864695   0.408256485471288
   0.567066055122901   0.163635265864695   0.408256485471288
   0.067066055122901   0.663635265864695   0.408256485471288
   0.567066055122901   0.663635265864695   0.408256485471288
   0.067066055122901   0.163635265864695   0.741589818804621
   0.567066055122901   0.163635265864695   0.741589818804621
   0.067066055122901   0.663635265864695   0.741589818804621
   0.567066055122901   0.663635265864695   0.741589818804621
   0.067060372813412   0.336358583938257   0.258413807721139
   0.567060372813412   0.336358583938257   0.258413807721139
   0.067060372813412   0.836358583938257   0.258413807721139
   0.567060372813412   0.836358583938257   0.258413807721139
   0.067060372813412   0.336358583938257   0.591747141054472
   0.567060372813412   0.336358583938257   0.591747141054472
   0.067060372813412   0.836358583938257   0.591747141054472
   0.567060372813412   0.836358583938257   0.591747141054472
   0.067060372813412   0.336358583938257   0.925080474387805
   0.567060372813412   0.336358583938257   0.925080474387805
   0.067060372813412   0.836358583938257   0.925080474387805
   0.567060372813412   0.836358583938257   0.925080474387805
   0.432940713911930   0.163641729747580   0.074920491137569
   0.932940713911930   0.163641729747580   0.074920491137569
   0.432940713911930   0.663641729747580   0.074920491137569
   0.932940713911930   0.663641729747580   0.074920491137569
   0.432940713911930   0.163641729747580   0.408253824470903
   0.932940713911930   0.163641729747580   0.408253824470903
   0.432940713911930   0.663641729747580   0.408253824470903
   0.932940713911930   0.663641729747580   0.408253824470903
   0.432940713911930   0.163641729747580   0.741587157804236
   0.932940713911930   0.163641729747580   0.741587157804236
   0.432940713911930   0.663641729747580   0.741587157804236
   0.932940713911930   0.663641729747580   0.741587157804236
   0.432934989681121   0.336365247333116   0.258410742423175
   0.932934989681121   0.336365247333116   0.258410742423175
   0.432934989681121   0.836365247333116   0.258410742423175
   0.932934989681121   0.836365247333116   0.258410742423175
   0.432934989681121   0.336365247333116   0.591744075756508
   0.932934989681121   0.336365247333116   0.591744075756508
   0.432934989681121   0.836365247333116   0.591744075756508
   0.932934989681121   0.836365247333116   0.591744075756508
   0.432934989681121   0.336365247333116   0.925077409089842
   0.932934989681121   0.336365247333116   0.925077409089842
   0.432934989681121   0.836365247333116   0.925077409089842
   0.932934989681121   0.836365247333116   0.925077409089842
   0.317066405663959   0.086366327112577   0.241582617299219
   0.817066405663959   0.086366327112577   0.241582617299219
   0.317066405663959   0.586366327112577   0.241582617299219
   0.817066405663959   0.586366327112577   0.241582617299219
   0.317066405663959   0.086366327112577   0.574915950632553
   0.817066405663959   0.086366327112577   0.574915950632553
   0.317066405663959   0.586366327112577   0.574915950632553
   0.817066405663959   0.586366327112577   0.574915950632553
   0.317066405663959   0.086366327112577   0.908249283965886
   0.817066405663959   0.086366327112577   0.908249283965886
   0.317066405663959   0.586366327112577   0.908249283965886
   0.817066405663959   0.586366327112577   0.908249283965886
   0.182941084583685   0.086357360638382   0.241594132481092
   0.682941084583685   0.086357360638382   0.241594132481092
   0.182941084583685   0.586357360638382   0.241594132481092
   0.682941084583685   0.586357360638382   0.241594132481092
   0.182941084583685   0.086357360638382   0.574927465814425
   0.682941084583685   0.086357360638382   0.574927465814425
   0.182941084583685   0.586357360638382   0.574927465814425
   0.682941084583685   0.586357360638382   0.574927465814425
   0.182941084583685   0.086357360638382   0.908260799147758
   0.682941084583685   0.086357360638382   0.908260799147758
   0.182941084583685   0.586357360638382   0.908260799147758
   0.682941084583685   0.586357360638382   0.908260799147758
   0.182934705928265   0.413634293426619   0.091751347257912
   0.682934705928265   0.413634293426619   0.091751347257912
   0.182934705928265   0.913634293426619   0.091751347257912
   0.682934705928265   0.913634293426619   0.091751347257912
   0.182934705928265   0.413634293426619   0.425084680591245
   0.682934705928265   0.413634293426619   0.425084680591245
   0.182934705928265   0.913634293426619   0.425084680591245
   0.682934705928265   0.913634293426619   0.425084680591245
   0.182934705928265   0.413634293426619   0.758418013924579
   0.682934705928265   0.413634293426619   0.758418013924579
   0.182934705928265   0.913634293426619   0.758418013924579
   0.682934705928265   0.913634293426619   0.758418013924579
   0.317060099370788   0.413642972626058   0.091739242490148
   0.817060099370788   0.413642972626058   0.091739242490148
   0.317060099370788   0.913642972626058   0.091739242490148
   0.817060099370788   0.913642972626058   0.091739242490148
   0.317060099370788   0.413642972626058   0.425072575823482
   0.817060099370788   0.413642972626058   0.425072575823482
   0.317060099370788   0.913642972626058   0.425072575823482
   0.817060099370788   0.913642972626058   0.425072575823482
   0.317060099370788   0.413642972626058   0.758405909156815
   0.817060099370788   0.413642972626058   0.758405909156815
   0.317060099370788   0.913642972626058   0.758405909156815
   0.817060099370788   0.913642972626058   0.758405909156815
