 C  H  N  O 
 1.0000000000000000
    10.1020000000000003    0.0000000000000000    0.0000000000000000
    -1.8133400000000002   13.6431000000000004    0.0000000000000000
     1.2533799999999999   -2.1555000000000000   14.4402000000000008
 C   H   N   O  
  48 112  16  32
Cartesian
  4.9484362235304182  5.0386864510537555  2.6415387268944346
  9.9247147755520846  0.7049646002315382  4.5786572354174266
  4.3930821907295430  3.7896758827273147  1.9950522639255022
  0.3780574505747048  1.9539896438005731  5.2251004150868958
  0.2025215867233935  1.7428103138117244  1.1068317753754604
  4.5684724747030652  4.0008936269804005  6.1132820344790506
  6.5672662235304182 11.8602364510537566  2.6415387268944346
  1.4415447755520829  7.5265146002315406  4.5786572354174266
  6.0119121907295430 10.6112258827273163  1.9950522639255022
  1.9968874505747047  8.7755396438005722  5.2251004150868958
  1.8213515867233934  8.5643603138117257  1.1068317753754604
  6.1873024747030652 10.8224436269803999  6.1132820344790506
  4.6684562235304190 10.7824864510537566  9.8616387268944372
  9.6447347755520845  6.4487646002315406 11.7987572354174262
  4.1131021907295429  9.5334758827273163  9.2151522639255017
  0.0980774505747046  7.6977896438005748 12.4452004150868962
 -0.0774584132766067  7.4866103138117257  8.3269317753754599
  4.2884924747030642  9.7446936269803999 13.3333820344790528
 -0.1025637764695820  5.0386864510537555  2.6415387268944346
  4.8737147755520835  0.7049646002315382  4.5786572354174266
  9.4440821907295422  3.7896758827273147  1.9950522639255022
  5.4290574505747049  1.9539896438005731  5.2251004150868958
  5.2535215867233944  1.7428103138117244  1.1068317753754604
  9.6194724747030662  4.0008936269804005  6.1132820344790506
  8.1006262235304192  3.9609364510537555  9.8616387268944372
  2.9749047755520834 -0.3727853997684618 11.7987572354174262
  7.5452721907295439  2.7119258827273147  9.2151522639255017
  3.5302474505747048  0.8762396438005731 12.4452004150868962
  3.3547115867233934  0.6650603138117245  8.3269317753754599
  7.7206624747030652  2.9231436269804001 13.3333820344790528
  1.5162662235304203 11.8602364510537566  2.6415387268944346
  6.4925447755520835  7.5265146002315406  4.5786572354174266
  0.9609121907295447 10.6112258827273163  1.9950522639255022
  7.0478874505747049  8.7755396438005722  5.2251004150868958
  6.8723515867233926  8.5643603138117257  1.1068317753754604
  1.1363024747030648 10.8224436269803999  6.1132820344790506
 -0.3825437764695822 10.7824864510537566  9.8616387268944372
  4.5937347755520834  6.4487646002315406 11.7987572354174262
  9.1641021907295439  9.5334758827273163  9.2151522639255017
  5.1490774505747048  7.6977896438005748 12.4452004150868962
  4.9735415867233943  7.4866103138117257  8.3269317753754599
  9.3394924747030643  9.7446936269803999 13.3333820344790528
  3.0496262235304159  3.9609364510537555  9.8616387268944372
  8.0259047755520818 -0.3727853997684618 11.7987572354174262
  2.4942721907295446  2.7119258827273147  9.2151522639255017
  8.5812474505747041  0.8762396438005731 12.4452004150868962
  8.4057115867233918  0.6650603138117245  8.3269317753754599
  2.6696624747030651  2.9231436269804001 13.3333820344790528
  4.1246041757996172  5.7264846210901403  2.8764813493785959
  0.6465846957250330  0.0172010315387716  4.3437599308447910
  0.4257000356867059  4.8006556208453324  3.5736875065162814
  4.3454941407867453  0.9429071862980707  3.6464500263307555
  5.6442856617578787  5.5559402717754294  1.9683002783590982
  9.2288790522635704  0.1876502168305676  5.2518858502155270
  3.6917472359647499  3.2646084677723533  2.6594168973856243
  1.0793992109086210  2.4790293985649243  4.5607333600363038
  3.8835472628064598  4.0055020876022089  1.0475789213520612
  0.8875828790473239  1.7381558300493516  6.1725778326096901
  2.2257590193711434  1.3380824716484632  1.1194512073302203
  2.5453341004047028  4.4055325148321076  6.1007150462764557
  1.1858123090907944  0.1138603161712338  0.3936618068848758
  3.5852721881889469  5.6299396838287681  6.8264381931151252
  5.7434341757996163 12.5480346210901406  2.8764813493785959
  2.2654146957250330  6.8387510315387727  4.3437599308447910
  2.0445300356867055 11.6222056208453317  3.5736875065162814
  5.9643241407867453  7.7644571862980722  3.6464500263307555
  7.2631156617578796 12.3774902717754287  1.9683002783590982
  0.7457090522635692  7.0092002168305685  5.2518858502155270
  5.3105772359647503 10.0861584677723553  2.6594168973856243
  2.6982292109086208  9.3005793985649259  4.5607333600363038
  5.5023772628064593 10.8270520876022101  1.0475789213520612
  2.5064128790473239  8.5597058300493511  6.1725778326096901
  3.8445890193711438  8.1596324716484627  1.1194512073302203
  4.1641641004047019 11.2270825148321105  6.1007150462764557
  2.8046423090907941  6.9354103161712350  0.3936618068848758
  5.2041021881889460 12.4514896838287701  6.8264381931151252
  3.8446241757996171 11.4702846210901424 10.0965813493785959
  0.3666046957250329  5.7610010315387727 11.5638599308447940
  0.1457200356867060 10.5444556208453335 10.7937875065162814
  4.0655141407867452  6.6867071862980714 10.8665500263307582
  5.3643056617578786 11.2997402717754323  9.1884002783590990
  8.9488990522635703  5.9314502168305685 12.4719858502155301
  3.4117672359647497  9.0084084677723553  9.8795168973856242
  0.7994192109086209  8.2228293985649259 11.7808333600363060
  3.6035672628064597  9.7493020876022118  8.2676789213520632
  0.6076028790473238  7.4819558300493521 13.3926778326096887
  1.9457790193711433  7.0818824716484636  8.3395512073302225
  2.2653541004047026 10.1493325148321087 13.3208150462764561
  0.9058323090907943  5.8576603161712351  7.6137618068848765
  3.3052921881889468 11.3737396838287665 14.0465381931151256
  9.1756041757996165  5.7264846210901403  2.8764813493785959
  5.6975846957250331  0.0172010315387716  4.3437599308447910
  5.4767000356867062  4.8006556208453324  3.5736875065162814
  9.3964941407867464  0.9429071862980707  3.6464500263307555
  0.5932856617578780  5.5559402717754294  1.9683002783590982
  4.1778790522635694  0.1876502168305676  5.2518858502155270
  8.7427472359647496  3.2646084677723533  2.6594168973856243
  6.1303992109086201  2.4790293985649243  4.5607333600363038
  8.9345472628064595  4.0055020876022089  1.0475789213520612
  5.9385828790473241  1.7381558300493516  6.1725778326096901
  7.2767590193711431  1.3380824716484632  1.1194512073302203
  7.5963341004047020  4.4055325148321076  6.1007150462764557
  6.2368123090907943  0.1138603161712338  0.3936618068848758
  8.6362721881889470  5.6299396838287681  6.8264381931151252
  7.2767941757996173  4.6487346210901404 10.0965813493785959
  3.7987746957250330 -1.0605489684612284 11.5638599308447940
  3.5778900356867056  3.7229056208453324 10.7937875065162814
  7.4976841407867454 -0.1348428137019295 10.8665500263307582
  8.7964756617578761  4.4781902717754294  9.1884002783590990
  2.2790690522635693 -0.8900997831694325 12.4719858502155301
  6.8439372359647503  2.1868584677723533  9.8795168973856242
  4.2315892109086208  1.4012793985649243 11.7808333600363060
  7.0357372628064594  2.9277520876022094  8.2676789213520632
  4.0397728790473240  0.6604058300493516 13.3926778326096887
  5.3779490193711439  0.2603324716484632  8.3395512073302225
  5.6975241004047019  3.3277825148321081 13.3208150462764561
  4.3380023090907942 -0.9638896838287662  7.6137618068848765
  6.7374621881889460  4.5521896838287681 14.0465381931151256
  0.6924341757996175 12.5480346210901406  2.8764813493785959
  7.3164146957250331  6.8387510315387727  4.3437599308447910
  7.0955300356867061 11.6222056208453317  3.5736875065162814
  0.9133241407867444  7.7644571862980722  3.6464500263307555
  2.2121156617578777 12.3774902717754287  1.9683002783590982
  5.7967090522635685  7.0092002168305685  5.2518858502155270
  0.2595772359647490 10.0861584677723553  2.6594168973856243
  7.7492292109086200  9.3005793985649259  4.5607333600363038
  0.4513772628064605 10.8270520876022101  1.0475789213520612
  7.5574128790473249  8.5597058300493511  6.1725778326096901
  8.8955890193711440  8.1596324716484627  1.1194512073302203
 -0.8868358995952961 11.2270825148321105  6.1007150462764557
  7.8556423090907943  6.9354103161712350  0.3936618068848758
  0.1531021881889464 12.4514896838287701  6.8264381931151252
  8.8956241757996182 11.4702846210901424 10.0965813493785959
  5.4176046957250321  5.7610010315387727 11.5638599308447940
  5.1967200356867052 10.5444556208453335 10.7937875065162814
  9.1165141407867445  6.6867071862980714 10.8665500263307582
  0.3133056617578777 11.2997402717754323  9.1884002783590990
  3.8978990522635693  5.9314502168305685 12.4719858502155301
  8.4627672359647512  9.0084084677723553  9.8795168973856242
  5.8504192109086208  8.2228293985649259 11.7808333600363060
  8.6545672628064594  9.7493020876022118  8.2676789213520632
  5.6586028790473240  7.4819558300493521 13.3926778326096887
  6.9967790193711430  7.0818824716484636  8.3395512073302225
  7.3163541004047019 10.1493325148321087 13.3208150462764561
  5.9568323090907942  5.8576603161712351  7.6137618068848765
  8.3562921881889469 11.3737396838287665 14.0465381931151256
  2.2257941757996176  4.6487346210901404 10.0965813493785959
  8.8497746957250314 -1.0605489684612284 11.5638599308447940
  8.6288900356867071  3.7229056208453324 10.7937875065162814
  2.4466841407867426 -0.1348428137019295 10.8665500263307582
  3.7454756617578782  4.4781902717754294  9.1884002783590990
  7.3300690522635685 -0.8900997831694325 12.4719858502155301
  1.7929372359647491  2.1868584677723533  9.8795168973856242
  9.2825892109086201  1.4012793985649243 11.7808333600363060
  1.9847372628064583  2.9277520876022094  8.2676789213520632
  9.0907728790473232  0.6604058300493516 13.3926778326096887
 10.4289490193711423  0.2603324716484632  8.3395512073302225
  0.6465241004047019  3.3277825148321081 13.3208150462764561
  9.3890023090907935 -0.9638896838287662  7.6137618068848765
  1.6864621881889468  4.5521896838287681 14.0465381931151256
  1.2887359960520204  0.9687875383054684  0.9508711534666874
  3.4823735233357316  4.7747992704131228  6.2692818872598357
  2.9075659960520204  7.7903375383054696  0.9508711534666874
  5.1012035233357311 11.5963492704131212  6.2692818872598357
  1.0087559960520203  6.7125875383054687  8.1709711534666880
  3.2023935233357315 10.5185992704131230 13.4893818872598352
  6.3397359960520197  0.9687875383054684  0.9508711534666874
  8.5333735233357313  4.7747992704131228  6.2692818872598357
  4.4409259960520204 -0.1089624616945315  8.1709711534666880
  6.6345635233357321  3.6970492704131233 13.4893818872598352
  7.9585659960520196  7.7903375383054696  0.9508711534666874
  0.0502035233357317 11.5963492704131212  6.2692818872598357
  6.0597559960520195  6.7125875383054687  8.1709711534666880
  8.2533935233357312 10.5185992704131230 13.4893818872598352
  9.4919259960520197 -0.1089624616945315  8.1709711534666880
  1.5835635233357293  3.6970492704131233 13.4893818872598352
  0.4814517137286641  2.9102721067092245  1.7333605087782804
  4.2896557800344324  2.8333550353675987  5.4867794698610641
  4.1071729403088240  1.4248670478332650  0.7429288439158698
  0.6639174578508933  4.3188257755112147  6.4770307608228777
  2.1002817137286640  9.7318221067092239  1.7333605087782804
  5.9084857800344324  9.6549050353675980  5.4867794698610641
  5.7260029403088240  8.2464170478332655  0.7429288439158698
  2.2827474578508933 11.1403757755112149  6.4770307608228777
  0.2014717137286639  8.6540721067092239  8.9534605087782833
  4.0096757800344323  8.5771550353676016 12.7068794698610645
  3.8271929403088234  7.1686670478332646  7.9630288439158701
  0.3839374578508930 10.0626257755112150 13.6971307608228763
  5.5324517137286646  2.9102721067092245  1.7333605087782804
  9.3406557800344316  2.8333550353675987  5.4867794698610641
  9.1581729403088232  1.4248670478332650  0.7429288439158698
  5.7149174578508930  4.3188257755112147  6.4770307608228777
  3.6336417137286641  1.8325221067092246  8.9534605087782833
  7.4418457800344324  1.7556050353675987 12.7068794698610645
  7.2593629403088240  0.3471170478332649  7.9630288439158701
  3.8161074578508924  3.2410757755112152 13.6971307608228763
  7.1512817137286637  9.7318221067092239  1.7333605087782804
  0.8574857800344328  9.6549050353675980  5.4867794698610641
  0.6750029403088236  8.2464170478332655  0.7429288439158698
  7.3337474578508930 11.1403757755112149  6.4770307608228777
  5.2524717137286645  8.6540721067092239  8.9534605087782833
  9.0606757800344333  8.5771550353676016 12.7068794698610645
  8.8781929403088249  7.1686670478332646  7.9630288439158701
  5.4349374578508929 10.0626257755112150 13.6971307608228763
  8.6846417137286611  1.8325221067092246  8.9534605087782833
  2.3908457800344327  1.7556050353675987 12.7068794698610645
  2.2083629403088239  0.3471170478332649  7.9630288439158701
  8.8671074578508922  3.2410757755112152 13.6971307608228763
