 C  H 
        1.0000000000
  14.881384969497063   0.000000000000000   0.000000000000000
   0.000000000000000  18.797570130030447   0.000000000000000
   0.000000000000000   0.000000000000000  13.692321078043909
  192  192
 Direct
   0.471050763629700   0.070824748643899   0.495959390655817
   0.971050763629701   0.070824748643899   0.495959390655817
   0.471050763629700   0.570824748643899   0.495959390655817
   0.971050763629701   0.570824748643899   0.495959390655817
   0.471050763629700   0.070824748643899   0.995959390655817
   0.971050763629701   0.070824748643899   0.995959390655817
   0.471050763629700   0.570824748643899   0.995959390655817
   0.971050763629701   0.570824748643899   0.995959390655817
   0.431690703906966   0.023653943660115   0.062570865858430
   0.931690703906966   0.023653943660115   0.062570865858430
   0.431690703906966   0.523653943660115   0.062570865858430
   0.931690703906966   0.523653943660115   0.062570865858430
   0.431690703906966   0.023653943660115   0.562570865858430
   0.931690703906966   0.023653943660115   0.562570865858430
   0.431690703906966   0.523653943660115   0.562570865858430
   0.931690703906966   0.523653943660115   0.562570865858430
   0.039172443312420   0.047117861348693   0.433399976853430
   0.539172443312420   0.047117861348693   0.433399976853430
   0.039172443312420   0.547117861348693   0.433399976853430
   0.539172443312420   0.547117861348693   0.433399976853430
   0.039172443312420   0.047117861348693   0.933399976853430
   0.539172443312420   0.047117861348693   0.933399976853430
   0.039172443312420   0.547117861348693   0.933399976853430
   0.539172443312420   0.547117861348693   0.933399976853430
   0.460827525854369   0.452882127690474   0.066599987397484
   0.960827525854369   0.452882127690474   0.066599987397484
   0.460827525854369   0.952882127690474   0.066599987397484
   0.960827525854369   0.952882127690474   0.066599987397484
   0.460827525854369   0.452882127690474   0.566599987397484
   0.960827525854369   0.452882127690474   0.566599987397484
   0.460827525854369   0.952882127690474   0.566599987397484
   0.960827525854369   0.952882127690474   0.566599987397484
   0.068309273801677   0.476346056105364   0.437429111426834
   0.568309273801677   0.476346056105364   0.437429111426834
   0.068309273801677   0.976346056105364   0.437429111426834
   0.568309273801677   0.976346056105364   0.437429111426834
   0.068309273801677   0.476346056105364   0.937429111426834
   0.568309273801677   0.476346056105364   0.937429111426834
   0.068309273801677   0.976346056105364   0.937429111426834
   0.568309273801677   0.976346056105364   0.937429111426834
   0.028949166833024   0.429175227689876   0.004040537968913
   0.528949166833024   0.429175227689876   0.004040537968913
   0.028949166833024   0.929175227689876   0.004040537968913
   0.528949166833024   0.929175227689876   0.004040537968913
   0.028949166833024   0.429175227689876   0.504040537968913
   0.528949166833024   0.429175227689876   0.504040537968913
   0.028949166833024   0.929175227689876   0.504040537968913
   0.528949166833024   0.929175227689876   0.504040537968913
   0.278949156544250   0.320824768105034   0.495959464853709
   0.778949156544250   0.320824768105034   0.495959464853709
   0.278949156544250   0.820824768105034   0.495959464853709
   0.778949156544250   0.820824768105034   0.495959464853709
   0.278949156544250   0.320824768105034   0.995959464853709
   0.778949156544250   0.320824768105034   0.995959464853709
   0.278949156544250   0.820824768105034   0.995959464853709
   0.778949156544250   0.820824768105034   0.995959464853709
   0.471050841545974   0.179175226542328   0.245959465818298
   0.971050841545974   0.179175226542328   0.245959465818298
   0.471050841545974   0.679175226542328   0.245959465818298
   0.971050841545974   0.679175226542328   0.245959465818298
   0.471050841545974   0.179175226542328   0.745959465818298
   0.971050841545974   0.179175226542328   0.745959465818298
   0.471050841545974   0.679175226542328   0.745959465818298
   0.971050841545974   0.679175226542328   0.745959465818298
   0.278949228667167   0.429175249221712   0.245959392671764
   0.778949228667167   0.429175249221712   0.245959392671764
   0.278949228667167   0.929175249221712   0.245959392671764
   0.778949228667167   0.929175249221712   0.245959392671764
   0.278949228667167   0.429175249221712   0.745959392671764
   0.778949228667167   0.429175249221712   0.745959392671764
   0.278949228667167   0.929175249221712   0.745959392671764
   0.778949228667167   0.929175249221712   0.745959392671764
   0.221050771940300   0.179175249276633   0.004040598411696
   0.721050771940300   0.179175249276633   0.004040598411696
   0.221050771940300   0.679175249276633   0.004040598411696
   0.721050771940300   0.679175249276633   0.004040598411696
   0.221050771940300   0.179175249276633   0.504040598411696
   0.721050771940300   0.179175249276633   0.504040598411696
   0.221050771940300   0.679175249276633   0.504040598411696
   0.721050771940300   0.679175249276633   0.504040598411696
   0.028949223574485   0.320824752654424   0.254040604654445
   0.528949223574485   0.320824752654424   0.254040604654445
   0.028949223574485   0.820824752654424   0.254040604654445
   0.528949223574485   0.820824752654424   0.254040604654445
   0.028949223574485   0.320824752654424   0.754040604654445
   0.528949223574485   0.320824752654424   0.754040604654445
   0.028949223574485   0.820824752654424   0.754040604654445
   0.528949223574485   0.820824752654424   0.754040604654445
   0.221050833345331   0.070824765232350   0.254040544758497
   0.721050833345331   0.070824765232350   0.254040544758497
   0.221050833345331   0.570824765232350   0.254040544758497
   0.721050833345331   0.570824765232350   0.254040544758497
   0.221050833345331   0.070824765232350   0.754040544758497
   0.721050833345331   0.070824765232350   0.754040544758497
   0.221050833345331   0.570824765232350   0.754040544758497
   0.721050833345331   0.570824765232350   0.754040544758497
   0.318309270655687   0.273653949431546   0.062570887185116
   0.818309270655687   0.273653949431546   0.062570887185116
   0.318309270655687   0.773653949431546   0.062570887185116
   0.818309270655687   0.773653949431546   0.062570887185116
   0.318309270655687   0.273653949431546   0.562570887185116
   0.818309270655687   0.273653949431546   0.562570887185116
   0.318309270655687   0.773653949431546   0.562570887185116
   0.818309270655687   0.773653949431546   0.562570887185116
   0.431690737831509   0.226346053285344   0.312570887675511
   0.931690737831509   0.226346053285344   0.312570887675511
   0.431690737831509   0.726346053285344   0.312570887675511
   0.931690737831509   0.726346053285344   0.312570887675511
   0.431690737831509   0.226346053285344   0.812570887675511
   0.931690737831509   0.226346053285344   0.812570887675511
   0.431690737831509   0.726346053285344   0.812570887675511
   0.931690737831509   0.726346053285344   0.812570887675511
   0.318309292400647   0.476346065195434   0.312570868149016
   0.818309292400647   0.476346065195434   0.312570868149016
   0.318309292400647   0.976346065195434   0.312570868149016
   0.818309292400647   0.976346065195434   0.312570868149016
   0.318309292400647   0.476346065195434   0.812570868149016
   0.818309292400647   0.476346065195434   0.812570868149016
   0.318309292400647   0.976346065195434   0.812570868149016
   0.818309292400647   0.976346065195434   0.812570868149016
   0.181690712370801   0.226346056536308   0.437429128300796
   0.681690712370801   0.226346056536308   0.437429128300796
   0.181690712370801   0.726346056536308   0.437429128300796
   0.681690712370801   0.726346056536308   0.437429128300796
   0.181690712370801   0.226346056536308   0.937429128300796
   0.681690712370801   0.226346056536308   0.937429128300796
   0.181690712370801   0.726346056536308   0.937429128300796
   0.681690712370801   0.726346056536308   0.937429128300796
   0.068309289117472   0.273653938989087   0.187429140993447
   0.568309289117472   0.273653938989087   0.187429140993447
   0.068309289117472   0.773653938989087   0.187429140993447
   0.568309289117472   0.773653938989087   0.187429140993447
   0.068309289117472   0.273653938989087   0.687429140993447
   0.568309289117472   0.273653938989087   0.687429140993447
   0.068309289117472   0.773653938989087   0.687429140993447
   0.568309289117472   0.773653938989087   0.687429140993447
   0.181690727243095   0.023653947867100   0.187429117302301
   0.681690727243095   0.023653947867100   0.187429117302301
   0.181690727243095   0.523653947867100   0.187429117302301
   0.681690727243095   0.523653947867100   0.187429117302301
   0.181690727243095   0.023653947867100   0.687429117302301
   0.681690727243095   0.023653947867100   0.687429117302301
   0.181690727243095   0.523653947867100   0.687429117302301
   0.681690727243095   0.523653947867100   0.687429117302301
   0.210827509349623   0.297117874824729   0.433400026755555
   0.710827509349623   0.297117874824729   0.433400026755555
   0.210827509349623   0.797117874824729   0.433400026755555
   0.710827509349623   0.797117874824729   0.433400026755555
   0.210827509349623   0.297117874824729   0.933400026755555
   0.710827509349623   0.297117874824729   0.933400026755555
   0.210827509349623   0.797117874824729   0.933400026755555
   0.710827509349623   0.797117874824729   0.933400026755555
   0.039172482653851   0.202882124657024   0.183400019808760
   0.539172482653851   0.202882124657024   0.183400019808760
   0.039172482653851   0.702882124657024   0.183400019808760
   0.539172482653851   0.702882124657024   0.183400019808760
   0.039172482653851   0.202882124657024   0.683400019808760
   0.539172482653851   0.202882124657024   0.683400019808760
   0.039172482653851   0.702882124657024   0.683400019808760
   0.539172482653851   0.702882124657024   0.683400019808760
   0.210827565801929   0.452882137350258   0.183399972778554
   0.710827565801929   0.452882137350258   0.183399972778554
   0.210827565801929   0.952882137350258   0.183399972778554
   0.710827565801929   0.952882137350258   0.183399972778554
   0.210827565801929   0.452882137350258   0.683399972778554
   0.710827565801929   0.452882137350258   0.683399972778554
   0.210827565801929   0.952882137350258   0.683399972778554
   0.710827565801929   0.952882137350258   0.683399972778554
   0.289172441895751   0.202882139373755   0.066600021512631
   0.789172441895751   0.202882139373755   0.066600021512631
   0.289172441895751   0.702882139373755   0.066600021512631
   0.789172441895751   0.702882139373755   0.066600021512631
   0.289172441895751   0.202882139373755   0.566600021512631
   0.789172441895751   0.202882139373755   0.566600021512631
   0.289172441895751   0.702882139373755   0.566600021512631
   0.789172441895751   0.702882139373755   0.566600021512631
   0.460827559170625   0.297117867358191   0.316600016787709
   0.960827559170625   0.297117867358191   0.316600016787709
   0.460827559170625   0.797117867358191   0.316600016787709
   0.960827559170625   0.797117867358191   0.316600016787709
   0.460827559170625   0.297117867358191   0.816600016787709
   0.960827559170625   0.297117867358191   0.816600016787709
   0.460827559170625   0.797117867358191   0.816600016787709
   0.960827559170625   0.797117867358191   0.816600016787709
   0.289172483228353   0.047117876313437   0.316599989471030
   0.789172483228353   0.047117876313437   0.316599989471030
   0.289172483228353   0.547117876313437   0.316599989471030
   0.789172483228353   0.547117876313437   0.316599989471030
   0.289172483228353   0.047117876313437   0.816599989471031
   0.789172483228353   0.047117876313437   0.816599989471031
   0.289172483228353   0.547117876313437   0.816599989471031
   0.789172483228353   0.547117876313437   0.816599989471031
   0.448816027627145   0.125704314082634   0.492718866798205
   0.948816027627145   0.125704314082634   0.492718866798205
   0.448816027627145   0.625704314082634   0.492718866798205
   0.948816027627145   0.625704314082634   0.492718866798205
   0.448816027627145   0.125704314082634   0.992718866798205
   0.948816027627145   0.125704314082634   0.992718866798205
   0.448816027627145   0.625704314082634   0.992718866798205
   0.948816027627145   0.625704314082634   0.992718866798205
   0.378510445846361   0.041494765247331   0.110809934965831
   0.878510445846361   0.041494765247331   0.110809934965831
   0.378510445846361   0.541494765247331   0.110809934965831
   0.878510445846361   0.541494765247331   0.110809934965831
   0.378510445846361   0.041494765247331   0.610809934965831
   0.878510445846361   0.041494765247331   0.610809934965831
   0.378510445846361   0.541494765247331   0.610809934965831
   0.878510445846361   0.541494765247331   0.610809934965831
   0.069216560598058   0.083397394374554   0.381379644749473
   0.569216560598058   0.083397394374554   0.381379644749473
   0.069216560598058   0.583397394374554   0.381379644749473
   0.569216560598058   0.583397394374554   0.381379644749473
   0.069216560598058   0.083397394374554   0.881379644749473
   0.569216560598058   0.083397394374554   0.881379644749473
   0.069216560598058   0.583397394374554   0.881379644749473
   0.569216560598058   0.583397394374554   0.881379644749473
   0.430783473917708   0.416602621482178   0.118620419905743
   0.930783473917708   0.416602621482178   0.118620419905743
   0.430783473917708   0.916602621482178   0.118620419905743
   0.930783473917708   0.916602621482178   0.118620419905743
   0.430783473917708   0.416602621482178   0.618620419905743
   0.930783473917708   0.416602621482178   0.618620419905743
   0.430783473917708   0.916602621482178   0.618620419905743
   0.930783473917708   0.916602621482178   0.618620419905743
   0.121489645868010   0.458505263226911   0.389190166803029
   0.621489645868010   0.458505263226911   0.389190166803029
   0.121489645868010   0.958505263226911   0.389190166803029
   0.621489645868010   0.958505263226911   0.389190166803029
   0.121489645868010   0.458505263226911   0.889190166803029
   0.621489645868010   0.458505263226911   0.889190166803029
   0.121489645868010   0.958505263226911   0.889190166803029
   0.621489645868010   0.958505263226911   0.889190166803029
   0.051183889105181   0.374295661177155   0.007281059551862
   0.551183889105181   0.374295661177155   0.007281059551862
   0.051183889105181   0.874295661177156   0.007281059551862
   0.551183889105181   0.874295661177156   0.007281059551862
   0.051183889105181   0.374295661177155   0.507281059551862
   0.551183889105181   0.374295661177155   0.507281059551862
   0.051183889105181   0.874295661177156   0.507281059551862
   0.551183889105181   0.874295661177156   0.507281059551862
   0.301183893364608   0.375704334568124   0.492718935913973
   0.801183893364608   0.375704334568124   0.492718935913973
   0.301183893364608   0.875704334568123   0.492718935913973
   0.801183893364608   0.875704334568123   0.492718935913973
   0.301183893364608   0.375704334568124   0.992718935913973
   0.801183893364608   0.375704334568124   0.992718935913973
   0.301183893364608   0.875704334568123   0.992718935913973
   0.801183893364608   0.875704334568123   0.992718935913973
   0.448816115667473   0.124295665453087   0.242718944022095
   0.948816115667473   0.124295665453087   0.242718944022095
   0.448816115667473   0.624295665453087   0.242718944022095
   0.948816115667473   0.624295665453087   0.242718944022095
   0.448816115667473   0.124295665453087   0.742718944022095
   0.948816115667473   0.124295665453087   0.742718944022095
   0.448816115667473   0.624295665453087   0.742718944022095
   0.948816115667473   0.624295665453087   0.742718944022095
   0.301183958661221   0.374295676831700   0.242718884342265
   0.801183958661221   0.374295676831700   0.242718884342265
   0.301183958661221   0.874295676831700   0.242718884342265
   0.801183958661221   0.874295676831700   0.242718884342265
   0.301183958661221   0.374295676831700   0.742718884342265
   0.801183958661221   0.374295676831700   0.742718884342265
   0.301183958661221   0.874295676831700   0.742718884342265
   0.801183958661221   0.874295676831700   0.742718884342265
   0.198816047126757   0.124295680393930   0.007281115512981
   0.698816047126757   0.124295680393930   0.007281115512981
   0.198816047126757   0.624295680393930   0.007281115512981
   0.698816047126757   0.624295680393930   0.007281115512981
   0.198816047126757   0.124295680393930   0.507281115512981
   0.698816047126757   0.124295680393930   0.507281115512981
   0.198816047126757   0.624295680393930   0.507281115512981
   0.698816047126757   0.624295680393930   0.507281115512981
   0.051183944394806   0.375704315970572   0.257281109300346
   0.551183944394806   0.375704315970572   0.257281109300346
   0.051183944394806   0.875704315970572   0.257281109300346
   0.551183944394806   0.875704315970572   0.257281109300346
   0.051183944394806   0.375704315970572   0.757281109300346
   0.551183944394806   0.375704315970572   0.757281109300346
   0.051183944394806   0.875704315970572   0.757281109300346
   0.551183944394806   0.875704315970572   0.757281109300346
   0.198816092049463   0.125704333630747   0.257281080265013
   0.698816092049463   0.125704333630747   0.257281080265013
   0.198816092049463   0.625704333630747   0.257281080265013
   0.698816092049463   0.625704333630747   0.257281080265013
   0.198816092049463   0.125704333630747   0.757281080265013
   0.698816092049463   0.125704333630747   0.757281080265013
   0.198816092049463   0.625704333630747   0.757281080265013
   0.698816092049463   0.625704333630747   0.757281080265013
   0.371489643039239   0.291494736769022   0.110809832353301
   0.871489643039239   0.291494736769022   0.110809832353301
   0.371489643039239   0.791494736769022   0.110809832353301
   0.871489643039239   0.791494736769022   0.110809832353301
   0.371489643039239   0.291494736769022   0.610809832353301
   0.871489643039239   0.291494736769022   0.610809832353301
   0.371489643039239   0.791494736769022   0.610809832353301
   0.871489643039239   0.791494736769022   0.610809832353301
   0.378510361364921   0.208505257747029   0.360809848966390
   0.878510361364921   0.208505257747029   0.360809848966390
   0.378510361364921   0.708505257747029   0.360809848966390
   0.878510361364921   0.708505257747029   0.360809848966390
   0.378510361364921   0.208505257747029   0.860809848966390
   0.878510361364921   0.208505257747029   0.860809848966390
   0.378510361364921   0.708505257747029   0.860809848966390
   0.878510361364921   0.708505257747029   0.860809848966390
   0.371489553488714   0.458505231403292   0.360809944837945
   0.871489553488714   0.458505231403292   0.360809944837945
   0.371489553488714   0.958505231403292   0.360809944837945
   0.871489553488714   0.958505231403292   0.360809944837945
   0.371489553488714   0.458505231403292   0.860809944837945
   0.871489553488714   0.458505231403292   0.860809944837945
   0.371489553488714   0.958505231403292   0.860809944837945
   0.871489553488714   0.958505231403292   0.860809944837945
   0.128510474091241   0.208505227155972   0.389190041776244
   0.628510474091241   0.208505227155972   0.389190041776244
   0.128510474091241   0.708505227155972   0.389190041776244
   0.628510474091241   0.708505227155972   0.389190041776244
   0.128510474091241   0.208505227155972   0.889190041776244
   0.628510474091241   0.208505227155972   0.889190041776244
   0.128510474091241   0.708505227155972   0.889190041776244
   0.628510474091241   0.708505227155972   0.889190041776244
   0.121489554922251   0.291494766373545   0.139190068450972
   0.621489554922251   0.291494766373545   0.139190068450972
   0.121489554922251   0.791494766373545   0.139190068450972
   0.621489554922251   0.791494766373545   0.139190068450972
   0.121489554922251   0.291494766373545   0.639190068450972
   0.621489554922251   0.291494766373545   0.639190068450972
   0.121489554922251   0.791494766373545   0.639190068450972
   0.621489554922251   0.791494766373545   0.639190068450972
   0.128510350466853   0.041494736309780   0.139190169655471
   0.628510350466853   0.041494736309780   0.139190169655471
   0.128510350466853   0.541494736309780   0.139190169655471
   0.628510350466853   0.541494736309780   0.139190169655471
   0.128510350466853   0.041494736309780   0.639190169655471
   0.628510350466853   0.041494736309780   0.639190169655471
   0.128510350466853   0.541494736309780   0.639190169655471
   0.628510350466853   0.541494736309780   0.639190169655471
   0.180783438733884   0.333397383338713   0.381379629533178
   0.680783438733884   0.333397383338713   0.381379629533178
   0.180783438733884   0.833397383338713   0.381379629533178
   0.680783438733884   0.833397383338713   0.381379629533178
   0.180783438733884   0.333397383338713   0.881379629533178
   0.680783438733884   0.333397383338713   0.881379629533178
   0.180783438733884   0.833397383338713   0.881379629533178
   0.680783438733884   0.833397383338713   0.881379629533178
   0.069216536809023   0.166602623140707   0.131379604578712
   0.569216536809023   0.166602623140707   0.131379604578712
   0.069216536809023   0.666602623140707   0.131379604578712
   0.569216536809023   0.666602623140707   0.131379604578712
   0.069216536809023   0.166602623140707   0.631379604578712
   0.569216536809023   0.166602623140707   0.631379604578712
   0.069216536809023   0.666602623140707   0.631379604578712
   0.569216536809023   0.666602623140707   0.631379604578712
   0.180783456941057   0.416602609476358   0.131379624119690
   0.680783456941057   0.416602609476358   0.131379624119690
   0.180783456941057   0.916602609476358   0.131379624119690
   0.680783456941057   0.916602609476358   0.131379624119690
   0.180783456941057   0.416602609476358   0.631379624119690
   0.680783456941057   0.416602609476358   0.631379624119690
   0.180783456941057   0.916602609476358   0.631379624119690
   0.680783456941057   0.916602609476358   0.631379624119690
   0.319216559845042   0.166602605299860   0.118620362100379
   0.819216559845042   0.166602605299860   0.118620362100379
   0.319216559845042   0.666602605299860   0.118620362100379
   0.819216559845042   0.666602605299860   0.118620362100379
   0.319216559845042   0.166602605299860   0.618620362100379
   0.819216559845042   0.166602605299860   0.618620362100379
   0.319216559845042   0.666602605299860   0.618620362100379
   0.819216559845042   0.666602605299860   0.618620362100379
   0.430783434081038   0.333397392377953   0.368620348745762
   0.930783434081038   0.333397392377953   0.368620348745762
   0.430783434081038   0.833397392377953   0.368620348745762
   0.930783434081038   0.833397392377953   0.368620348745762
   0.430783434081038   0.333397392377953   0.868620348745762
   0.930783434081038   0.333397392377953   0.868620348745762
   0.430783434081038   0.833397392377953   0.868620348745762
   0.930783434081038   0.833397392377953   0.868620348745762
   0.319216540402269   0.083397377921544   0.368620394317173
   0.819216540402269   0.083397377921544   0.368620394317173
   0.319216540402269   0.583397377921544   0.368620394317173
   0.819216540402269   0.583397377921544   0.368620394317173
   0.319216540402269   0.083397377921544   0.868620394317173
   0.819216540402269   0.083397377921544   0.868620394317173
   0.319216540402269   0.583397377921544   0.868620394317173
   0.819216540402269   0.583397377921544   0.868620394317173
