 C  H  O 
 1.0000000000000000
     9.3200000000000003    0.0000000000000000    0.0000000000000000
    -4.6600000000000001    8.0713600000000003    0.0000000000000000
     0.0000000000000000    0.0000000000000000    8.1959999999999997
 C   H   O  
  18  36  18
Cartesian
  0.5595141576183307  1.2427391941573054  8.0605656261894136
  3.3046008492593852  7.9335204016612586  8.0605662011545078
 -3.8623265687292712  6.9654461807199661  8.0605665249651288
  3.8635136231882679  6.9654367809384210  3.9625648391344694
 -0.5583267763858319  1.2427297902089618  3.9625666704019000
 -3.3034136609646203  7.9335112871525642  3.9625668291853668
  5.2195176598020883  3.9331917039356634  2.5965768496029611
  3.3045999271174598  2.5526183269126763  2.5965770765224176
  5.4576697008394994  1.5845381723108922  2.5965824695428266
  3.8635160781079301  1.5845274830929028  6.6945760750451040
  4.1016687861509782  3.9331816291830006  6.6945775487860919
  6.0165856361287720  2.5526085214627248  6.6945827785520855
  0.5595125391548754  6.6236453208335329  5.3285662272540950
 -1.3553996982981003  5.2430655878698733  5.3285691425956498
  0.7976735484843063  4.2749926064219341  5.3285692901591393
 -0.7964867381382961  4.2749850893180312  1.2305654544358677
 -0.5583257872169020  6.6236377120524903  1.2305696255584766
  1.3565866407033895  5.2430579722925490  1.2305696041380925
  0.5683751173128837  1.2606012786701748  6.9635661116961458
  3.2847011369684513  7.9322627933235506  6.9635667546154503
 -3.8512874878657346  6.9488406847121276  6.9635671483205259
  3.8524754123679283  6.9488323837230954  2.8655653402892383
 -0.5671872022911185  1.2605928322404896  2.8655671951858701
 -3.2835130889562909  7.9322544045018315  2.8655674822261585
  5.2283809382042747  3.9510524549449477  1.4995773291166481
  3.2847011025412756  2.5513577784413233  1.4995775258664950
  5.4687101998782417  1.5679308833359031  1.4995830560639458
  3.8524801933858450  1.5679217525235267  5.5975765505953339
  4.0928113469215477  3.9510453666304026  5.5975779663129366
  6.0364884686358700  2.5513513100144452  5.5975833892162052
  0.5683721377241676  6.6415062977784629  4.2315666564993437
 -1.3753002533802805  5.2418067646856352  4.2315696693158005
  0.8087130550591919  4.2583861802381051  4.2315697866060784
 -0.8075246489403879  4.2583824553769416  0.1335658804414489
 -0.5671855624690652  6.6415020473211932  0.1335701088804173
  1.3764881934959556  5.2418011860674083  0.1335701217938756
  0.9698236605061517  2.1495857469275239  0.2958459594612451
  2.3140940777455521  7.8354356470600557  0.2958471275788649
 -3.2821290856023486  6.1566850049988009  0.2958480163326061
  3.2833161065975216  6.1566748091338752  4.3938446844004790
 -0.9686363724979510  2.1495759682167113  4.3938479167097064
 -2.3129072678832774  7.8354258872070659  4.3938485094159194
  5.6298284510477723  4.8400377900599922  3.0278568356935907
  2.3140924262272060  2.4545371265985492  3.0278572537096924
  6.0378648002604667  0.7757764110516507  3.0278656486368059
  3.2833196237724378  0.7757646421802474  7.1258555570322981
  3.6913557475339780  4.8400266566497301  7.1258580409874597
  7.0070913423029264  2.4545254799163456  7.1258661427331020
  0.9698214671157784  7.5304928727973834  5.7598450606339737
 -2.3459062387239191  5.1449800951356259  5.7598506573097623
  1.3778718931299594  3.4662324355797862  5.7598512804325503
 -1.3766853775124992  3.4662231576650568  1.6618437779295692
 -0.9686345999954765  7.5304839967848167  1.6618514346504807
  2.3470925413147334  5.1449713261634225  1.6618517673893287
  1.3625256071830876  0.1370503956970222  0.3379435241196401
  8.5206497598568873  1.1104334232062580  0.3379432544155583
  4.0986130025943250  6.8228621184741058  0.3379436398030165
  5.2225737576455513  6.8228526316562368  4.4359431359405930
  7.9586614049837126  0.1370405161385135  4.4359428696318570
  0.8005374639653990  1.1104239694079887  4.4359444178301937
  6.0225250157893644  2.8275014790424975  3.0699581107873111
  3.8606516556198671  3.8008910019278175  3.0699519631210719
  4.0986083639117972  1.4419586269939650  3.0699579943652937
  5.2225754111254359  1.4419476040868731  7.1679577198530229
  3.2986586796338320  2.8274900918850698  7.1679515753042118
  5.4605323953882889  3.8008797258802312  7.1679587684475807
  1.3625250723790461  5.5179577326956633  5.8019450441349907
 -0.7993516333978288  6.4913393783146836  5.8019452181815714
 -0.5613867155425589  4.1324077334093516  5.8019469000087085
  0.5625729077052329  4.1323994309285634  1.7039446538855585
 -1.3613386683499922  5.5179487462116281  1.7039448305677196
  0.8005385140027075  6.4913309066638440  1.7039476737551620
