super cell                              
   1.0000000000000000     
    20.0000000000000000    0.0000000000000000    0.0000000000000000
     0.0000000000000000   20.0000000000000000    0.0000000000000000
     0.0000000000000000    0.0000000000000000   20.0000000000000000
   C    O 
     1     2
Direct
  0.2405795000000026  0.2406258330000028  0.2811455000000009
  0.2746111470000017  0.2065781650000034  0.2474579390000002
  0.2065478530000036  0.2746735019999988  0.3144330610000026

  0.00000000E+00  0.00000000E+00  0.00000000E+00
  0.00000000E+00  0.00000000E+00  0.00000000E+00
  0.00000000E+00  0.00000000E+00  0.00000000E+00
