super cell
        1.0000000000
  20.000000000000000   0.000000000000000   0.000000000000000
   0.000000000000000  20.000000000000000   0.000000000000000
   0.000000000000000   0.000000000000000  20.000000000000000
    1    2
 Direct
   0.240579499999996   0.240625833333340   0.281145500000015
   0.274611147300419   0.206578164817042   0.247857939327803
   0.206547852699586   0.274673501849623   0.314433060672177
