 C  H  N  O                             
   1.0000000000000000     
    22.0000000000000000    0.0000000000000000    0.0000000000000000
     0.0000000000000000   22.0000000000000000    0.0000000000000000
     0.0000000000000000    0.0000000000000000   22.0000000000000000
   C    H    N    O 
     4     4     2     2
Direct
  0.2631246647094088  0.2083526136221607  0.1818307462279520
  0.3592933256742938  0.2718466311064205  0.1818289970749731
  0.3206616491322123  0.3257712812506739  0.1818045428881447
  0.2594427993436454  0.3200540671124159  0.1817945253456372
  0.3509624867459422  0.1773829436608381  0.1818574117813228
  0.1856148669790088  0.2602070221127519  0.1817991957058069
  0.3424064469429240  0.3696736993828225  0.1817950048072703
  0.2290584204243231  0.3586522851653839  0.1817763644486305
  0.2313849426568169  0.2638475630791888  0.1818071635812402
  0.3259705910052730  0.2161213114588207  0.1818404513558249
  0.4150010802858120  0.2710826446889598  0.1818397474434619
  0.2374800897366924  0.1590852100868219  0.1814776675215637

  0.00000000E+00  0.00000000E+00  0.00000000E+00
  0.00000000E+00  0.00000000E+00  0.00000000E+00
  0.00000000E+00  0.00000000E+00  0.00000000E+00
  0.00000000E+00  0.00000000E+00  0.00000000E+00
  0.00000000E+00  0.00000000E+00  0.00000000E+00
  0.00000000E+00  0.00000000E+00  0.00000000E+00
  0.00000000E+00  0.00000000E+00  0.00000000E+00
  0.00000000E+00  0.00000000E+00  0.00000000E+00
  0.00000000E+00  0.00000000E+00  0.00000000E+00
  0.00000000E+00  0.00000000E+00  0.00000000E+00
  0.00000000E+00  0.00000000E+00  0.00000000E+00
  0.00000000E+00  0.00000000E+00  0.00000000E+00
