 C  O 
 1.0000000000000000
    20.0000000000000000    0.0000000000000000    0.0000000000000000
     0.0000000000000000   20.0000000000000000    0.0000000000000000
     0.0000000000000000    0.0000000000000000   20.0000000000000000
 C   O  
   1   2
Cartesian
  4.8115900000003382  4.8125166666663679  5.6229099999998375
  5.4922248022870397  4.1315614391883004  4.9571569708641237
  4.1309551977126384  5.4934718941454328  6.2886630291359529
