 C  O 
 1.0000000000000000
    16.8276880966502844   -0.0000000000000000    0.0000000000000000
    -0.0000000000000000   16.8276880966502844    0.0000000000000000
     0.0000000000000000    0.0000000000000000   16.8276880966502844
 C   O  
 108 216
Selective dynamics
Cartesian
  0.3364852532078107  0.3364851928161829  0.3364851895300383   T   T   T
  5.9457146187579033  0.3364851928161829  0.3364851895300383   T   T   T
 11.5549439843080002  0.3364851928161829  0.3364851895300383   T   T   T
  0.3364852532078107  5.9457145583662756  0.3364851895300383   T   T   T
  5.9457146187579033  5.9457145583662756  0.3364851895300383   T   T   T
 11.5549439843080002  5.9457145583662756  0.3364851895300383   T   T   T
  0.3364852532078107 11.5549439239163689  0.3364851895300383   T   T   T
  5.9457146187579033 11.5549439239163689  0.3364851895300383   T   T   T
 11.5549439843080002 11.5549439239163689  0.3364851895300383   T   T   T
  0.3364852532078107  0.3364851928161829  5.9457145550801327   T   T   T
  5.9457146187579033  0.3364851928161829  5.9457145550801327   T   T   T
 11.5549439843080002  0.3364851928161829  5.9457145550801327   T   T   T
  0.3364852532078107  5.9457145583662756  5.9457145550801327   T   T   T
  5.9457146187579033  5.9457145583662756  5.9457145550801327   T   T   T
 11.5549439843080002  5.9457145583662756  5.9457145550801327   T   T   T
  0.3364852532078107 11.5549439239163689  5.9457145550801327   T   T   T
  5.9457146187579033 11.5549439239163689  5.9457145550801327   T   T   T
 11.5549439843080002 11.5549439239163689  5.9457145550801327   T   T   T
  0.3364852532078107  0.3364851928161829 11.5549439206302242   T   T   T
  5.9457146187579033  0.3364851928161829 11.5549439206302242   T   T   T
 11.5549439843080002  0.3364851928161829 11.5549439206302242   T   T   T
  0.3364852532078107  5.9457145583662756 11.5549439206302242   T   T   T
  5.9457146187579033  5.9457145583662756 11.5549439206302242   T   T   T
 11.5549439843080002  5.9457145583662756 11.5549439206302242   T   T   T
  0.3364852532078107 11.5549439239163689 11.5549439206302242   T   T   T
  5.9457146187579033 11.5549439239163689 11.5549439206302242   T   T   T
 11.5549439843080002 11.5549439239163689 11.5549439206302242   T   T   T
  3.1410999359828580  0.3364851928161829  3.1410998723050856   T   T   T
  8.7503293015329504  0.3364851928161829  3.1410998723050856   T   T   T
 14.3595586670830482  0.3364851928161829  3.1410998723050856   T   T   T
  3.1410999359828580  5.9457145583662756  3.1410998723050856   T   T   T
  8.7503293015329504  5.9457145583662756  3.1410998723050856   T   T   T
 14.3595586670830482  5.9457145583662756  3.1410998723050856   T   T   T
  3.1410999359828580 11.5549439239163689  3.1410998723050856   T   T   T
  8.7503293015329504 11.5549439239163689  3.1410998723050856   T   T   T
 14.3595586670830482 11.5549439239163689  3.1410998723050856   T   T   T
  3.1410999359828580  0.3364851928161829  8.7503292378551780   T   T   T
  8.7503293015329504  0.3364851928161829  8.7503292378551780   T   T   T
 14.3595586670830482  0.3364851928161829  8.7503292378551780   T   T   T
  3.1410999359828580  5.9457145583662756  8.7503292378551780   T   T   T
  8.7503293015329504  5.9457145583662756  8.7503292378551780   T   T   T
 14.3595586670830482  5.9457145583662756  8.7503292378551780   T   T   T
  3.1410999359828580 11.5549439239163689  8.7503292378551780   T   T   T
  8.7503293015329504 11.5549439239163689  8.7503292378551780   T   T   T
 14.3595586670830482 11.5549439239163689  8.7503292378551780   T   T   T
  3.1410999359828580  0.3364851928161829 14.3595586034052722   T   T   T
  8.7503293015329504  0.3364851928161829 14.3595586034052722   T   T   T
 14.3595586670830482  0.3364851928161829 14.3595586034052722   T   T   T
  3.1410999359828580  5.9457145583662756 14.3595586034052722   T   T   T
  8.7503293015329504  5.9457145583662756 14.3595586034052722   T   T   T
 14.3595586670830482  5.9457145583662756 14.3595586034052722   T   T   T
  3.1410999359828580 11.5549439239163689 14.3595586034052722   T   T   T
  8.7503293015329504 11.5549439239163689 14.3595586034052722   T   T   T
 14.3595586670830482 11.5549439239163689 14.3595586034052722   T   T   T
  0.3364852532078107  3.1410998755912298  3.1410998723050856   T   T   T
  5.9457146187579033  3.1410998755912298  3.1410998723050856   T   T   T
 11.5549439843080002  3.1410998755912298  3.1410998723050856   T   T   T
  0.3364852532078107  8.7503292411413227  3.1410998723050856   T   T   T
  5.9457146187579033  8.7503292411413227  3.1410998723050856   T   T   T
 11.5549439843080002  8.7503292411413227  3.1410998723050856   T   T   T
  0.3364852532078107 14.3595586066914187  3.1410998723050856   T   T   T
  5.9457146187579033 14.3595586066914187  3.1410998723050856   T   T   T
 11.5549439843080002 14.3595586066914187  3.1410998723050856   T   T   T
  0.3364852532078107  3.1410998755912298  8.7503292378551780   T   T   T
  5.9457146187579033  3.1410998755912298  8.7503292378551780   T   T   T
 11.5549439843080002  3.1410998755912298  8.7503292378551780   T   T   T
  0.3364852532078107  8.7503292411413227  8.7503292378551780   T   T   T
  5.9457146187579033  8.7503292411413227  8.7503292378551780   T   T   T
 11.5549439843080002  8.7503292411413227  8.7503292378551780   T   T   T
  0.3364852532078107 14.3595586066914187  8.7503292378551780   T   T   T
  5.9457146187579033 14.3595586066914187  8.7503292378551780   T   T   T
 11.5549439843080002 14.3595586066914187  8.7503292378551780   T   T   T
  0.3364852532078107  3.1410998755912298 14.3595586034052722   T   T   T
  5.9457146187579033  3.1410998755912298 14.3595586034052722   T   T   T
 11.5549439843080002  3.1410998755912298 14.3595586034052722   T   T   T
  0.3364852532078107  8.7503292411413227 14.3595586034052722   T   T   T
  5.9457146187579033  8.7503292411413227 14.3595586034052722   T   T   T
 11.5549439843080002  8.7503292411413227 14.3595586034052722   T   T   T
  0.3364852532078107 14.3595586066914187 14.3595586034052722   T   T   T
  5.9457146187579033 14.3595586066914187 14.3595586034052722   T   T   T
 11.5549439843080002 14.3595586066914187 14.3595586034052722   T   T   T
  3.1410999359828580  3.1410998755912298  0.3364851895300383   T   T   T
  8.7503293015329504  3.1410998755912298  0.3364851895300383   T   T   T
 14.3595586670830482  3.1410998755912298  0.3364851895300383   T   T   T
  3.1410999359828580  8.7503292411413227  0.3364851895300383   T   T   T
  8.7503293015329504  8.7503292411413227  0.3364851895300383   T   T   T
 14.3595586670830482  8.7503292411413227  0.3364851895300383   T   T   T
  3.1410999359828580 14.3595586066914187  0.3364851895300383   T   T   T
  8.7503293015329504 14.3595586066914187  0.3364851895300383   T   T   T
 14.3595586670830482 14.3595586066914187  0.3364851895300383   T   T   T
  3.1410999359828580  3.1410998755912298  5.9457145550801327   T   T   T
  8.7503293015329504  3.1410998755912298  5.9457145550801327   T   T   T
 14.3595586670830482  3.1410998755912298  5.9457145550801327   T   T   T
  3.1410999359828580  8.7503292411413227  5.9457145550801327   T   T   T
  8.7503293015329504  8.7503292411413227  5.9457145550801327   T   T   T
 14.3595586670830482  8.7503292411413227  5.9457145550801327   T   T   T
  3.1410999359828580 14.3595586066914187  5.9457145550801327   T   T   T
  8.7503293015329504 14.3595586066914187  5.9457145550801327   T   T   T
 14.3595586670830482 14.3595586066914187  5.9457145550801327   T   T   T
  3.1410999359828580  3.1410998755912298 11.5549439206302242   T   T   T
  8.7503293015329504  3.1410998755912298 11.5549439206302242   T   T   T
 14.3595586670830482  3.1410998755912298 11.5549439206302242   T   T   T
  3.1410999359828580  8.7503292411413227 11.5549439206302242   T   T   T
  8.7503293015329504  8.7503292411413227 11.5549439206302242   T   T   T
 14.3595586670830482  8.7503292411413227 11.5549439206302242   T   T   T
  3.1410999359828580 14.3595586066914187 11.5549439206302242   T   T   T
  8.7503293015329504 14.3595586066914187 11.5549439206302242   T   T   T
 14.3595586670830482 14.3595586066914187 11.5549439206302242   T   T   T
  1.0118739540314052  1.0118738936397778  1.0118738903536328   T   T   T
  6.6211033195815014  1.0118738936397778  1.0118738903536328   T   T   T
 12.2303326851315965  1.0118738936397778  1.0118738903536328   T   T   T
  1.0118739540314052  6.6211032591898729  1.0118738903536328   T   T   T
  6.6211033195815014  6.6211032591898729  1.0118738903536328   T   T   T
 12.2303326851315965  6.6211032591898729  1.0118738903536328   T   T   T
  1.0118739540314052 12.2303326247399724  1.0118738903536328   T   T   T
  6.6211033195815014 12.2303326247399724  1.0118738903536328   T   T   T
 12.2303326851315965 12.2303326247399724  1.0118738903536328   T   T   T
  1.0118739540314052  1.0118738936397778  6.6211032559037299   T   T   T
  6.6211033195815014  1.0118738936397778  6.6211032559037299   T   T   T
 12.2303326851315965  1.0118738936397778  6.6211032559037299   T   T   T
  1.0118739540314052  6.6211032591898729  6.6211032559037299   T   T   T
  6.6211033195815014  6.6211032591898729  6.6211032559037299   T   T   T
 12.2303326851315965  6.6211032591898729  6.6211032559037299   T   T   T
  1.0118739540314052 12.2303326247399724  6.6211032559037299   T   T   T
  6.6211033195815014 12.2303326247399724  6.6211032559037299   T   T   T
 12.2303326851315965 12.2303326247399724  6.6211032559037299   T   T   T
  1.0118739540314052  1.0118738936397778 12.2303326214538277   T   T   T
  6.6211033195815014  1.0118738936397778 12.2303326214538277   T   T   T
 12.2303326851315965  1.0118738936397778 12.2303326214538277   T   T   T
  1.0118739540314052  6.6211032591898729 12.2303326214538277   T   T   T
  6.6211033195815014  6.6211032591898729 12.2303326214538277   T   T   T
 12.2303326851315965  6.6211032591898729 12.2303326214538277   T   T   T
  1.0118739540314052 12.2303326247399724 12.2303326214538277   T   T   T
  6.6211033195815014 12.2303326247399724 12.2303326214538277   T   T   T
 12.2303326851315965 12.2303326247399724 12.2303326214538277   T   T   T
  5.2703259179343105  5.2703258575426828  5.2703258542565363   T   T   T
 10.8795552834844003  5.2703258575426828  5.2703258542565363   T   T   T
 16.4887846490344998  5.2703258575426828  5.2703258542565363   T   T   T
  5.2703259179343105 10.8795552230927743  5.2703258542565363   T   T   T
 10.8795552834844003 10.8795552230927743  5.2703258542565363   T   T   T
 16.4887846490344998 10.8795552230927743  5.2703258542565363   T   T   T
  5.2703259179343105 16.4887845886428721  5.2703258542565363   T   T   T
 10.8795552834844003 16.4887845886428721  5.2703258542565363   T   T   T
 16.4887846490344998 16.4887845886428721  5.2703258542565363   T   T   T
  5.2703259179343105  5.2703258575426828 10.8795552198066297   T   T   T
 10.8795552834844003  5.2703258575426828 10.8795552198066297   T   T   T
 16.4887846490344998  5.2703258575426828 10.8795552198066297   T   T   T
  5.2703259179343105 10.8795552230927743 10.8795552198066297   T   T   T
 10.8795552834844003 10.8795552230927743 10.8795552198066297   T   T   T
 16.4887846490344998 10.8795552230927743 10.8795552198066297   T   T   T
  5.2703259179343105 16.4887845886428721 10.8795552198066297   T   T   T
 10.8795552834844003 16.4887845886428721 10.8795552198066297   T   T   T
 16.4887846490344998 16.4887845886428721 10.8795552198066297   T   T   T
  5.2703259179343105  5.2703258575426828 16.4887845853567256   T   T   T
 10.8795552834844003  5.2703258575426828 16.4887845853567256   T   T   T
 16.4887846490344998  5.2703258575426828 16.4887845853567256   T   T   T
  5.2703259179343105 10.8795552230927743 16.4887845853567256   T   T   T
 10.8795552834844003 10.8795552230927743 16.4887845853567256   T   T   T
 16.4887846490344998 10.8795552230927743 16.4887845853567256   T   T   T
  5.2703259179343105 16.4887845886428721 16.4887845853567256   T   T   T
 10.8795552834844003 16.4887845886428721 16.4887845853567256   T   T   T
 16.4887846490344998 16.4887845886428721 16.4887845853567256   T   T   T
  2.4657112351592629  5.2703258575426828  3.8164885731286819   T   T   T
  8.0749406007093540  5.2703258575426828  3.8164885731286819   T   T   T
 13.6841699662594483  5.2703258575426828  3.8164885731286819   T   T   T
  2.4657112351592629 10.8795552230927743  3.8164885731286819   T   T   T
  8.0749406007093540 10.8795552230927743  3.8164885731286819   T   T   T
 13.6841699662594483 10.8795552230927743  3.8164885731286819   T   T   T
  2.4657112351592629 16.4887845886428721  3.8164885731286819   T   T   T
  8.0749406007093540 16.4887845886428721  3.8164885731286819   T   T   T
 13.6841699662594483 16.4887845886428721  3.8164885731286819   T   T   T
  2.4657112351592629  5.2703258575426828  9.4257179386787779   T   T   T
  8.0749406007093540  5.2703258575426828  9.4257179386787779   T   T   T
 13.6841699662594483  5.2703258575426828  9.4257179386787779   T   T   T
  2.4657112351592629 10.8795552230927743  9.4257179386787779   T   T   T
  8.0749406007093540 10.8795552230927743  9.4257179386787779   T   T   T
 13.6841699662594483 10.8795552230927743  9.4257179386787779   T   T   T
  2.4657112351592629 16.4887845886428721  9.4257179386787779   T   T   T
  8.0749406007093540 16.4887845886428721  9.4257179386787779   T   T   T
 13.6841699662594483 16.4887845886428721  9.4257179386787779   T   T   T
  2.4657112351592629  5.2703258575426828 15.0349473042288704   T   T   T
  8.0749406007093540  5.2703258575426828 15.0349473042288704   T   T   T
 13.6841699662594483  5.2703258575426828 15.0349473042288704   T   T   T
  2.4657112351592629 10.8795552230927743 15.0349473042288704   T   T   T
  8.0749406007093540 10.8795552230927743 15.0349473042288704   T   T   T
 13.6841699662594483 10.8795552230927743 15.0349473042288704   T   T   T
  2.4657112351592629 16.4887845886428721 15.0349473042288704   T   T   T
  8.0749406007093540 16.4887845886428721 15.0349473042288704   T   T   T
 13.6841699662594483 16.4887845886428721 15.0349473042288704   T   T   T
  3.8164886368064530  1.0118738936397778  2.4657111714814897   T   T   T
  9.4257180023565486  1.0118738936397778  2.4657111714814897   T   T   T
 15.0349473679066445  1.0118738936397778  2.4657111714814897   T   T   T
  3.8164886368064530  6.6211032591898729  2.4657111714814897   T   T   T
  9.4257180023565486  6.6211032591898729  2.4657111714814897   T   T   T
 15.0349473679066445  6.6211032591898729  2.4657111714814897   T   T   T
  3.8164886368064530 12.2303326247399724  2.4657111714814897   T   T   T
  9.4257180023565486 12.2303326247399724  2.4657111714814897   T   T   T
 15.0349473679066445 12.2303326247399724  2.4657111714814897   T   T   T
  3.8164886368064530  1.0118738936397778  8.0749405370315817   T   T   T
  9.4257180023565486  1.0118738936397778  8.0749405370315817   T   T   T
 15.0349473679066445  1.0118738936397778  8.0749405370315817   T   T   T
  3.8164886368064530  6.6211032591898729  8.0749405370315817   T   T   T
  9.4257180023565486  6.6211032591898729  8.0749405370315817   T   T   T
 15.0349473679066445  6.6211032591898729  8.0749405370315817   T   T   T
  3.8164886368064530 12.2303326247399724  8.0749405370315817   T   T   T
  9.4257180023565486 12.2303326247399724  8.0749405370315817   T   T   T
 15.0349473679066445 12.2303326247399724  8.0749405370315817   T   T   T
  3.8164886368064530  1.0118738936397778 13.6841699025816776   T   T   T
  9.4257180023565486  1.0118738936397778 13.6841699025816776   T   T   T
 15.0349473679066445  1.0118738936397778 13.6841699025816776   T   T   T
  3.8164886368064530  6.6211032591898729 13.6841699025816776   T   T   T
  9.4257180023565486  6.6211032591898729 13.6841699025816776   T   T   T
 15.0349473679066445  6.6211032591898729 13.6841699025816776   T   T   T
  3.8164886368064530 12.2303326247399724 13.6841699025816776   T   T   T
  9.4257180023565486 12.2303326247399724 13.6841699025816776   T   T   T
 15.0349473679066445 12.2303326247399724 13.6841699025816776   T   T   T
  5.2703259179343105  3.8164885764148262  2.4657111714814897   T   T   T
 10.8795552834844003  3.8164885764148262  2.4657111714814897   T   T   T
 16.4887846490344998  3.8164885764148262  2.4657111714814897   T   T   T
  5.2703259179343105  9.4257179419649209  2.4657111714814897   T   T   T
 10.8795552834844003  9.4257179419649209  2.4657111714814897   T   T   T
 16.4887846490344998  9.4257179419649209  2.4657111714814897   T   T   T
  5.2703259179343105 15.0349473075150168  2.4657111714814897   T   T   T
 10.8795552834844003 15.0349473075150168  2.4657111714814897   T   T   T
 16.4887846490344998 15.0349473075150168  2.4657111714814897   T   T   T
  5.2703259179343105  3.8164885764148262  8.0749405370315817   T   T   T
 10.8795552834844003  3.8164885764148262  8.0749405370315817   T   T   T
 16.4887846490344998  3.8164885764148262  8.0749405370315817   T   T   T
  5.2703259179343105  9.4257179419649209  8.0749405370315817   T   T   T
 10.8795552834844003  9.4257179419649209  8.0749405370315817   T   T   T
 16.4887846490344998  9.4257179419649209  8.0749405370315817   T   T   T
  5.2703259179343105 15.0349473075150168  8.0749405370315817   T   T   T
 10.8795552834844003 15.0349473075150168  8.0749405370315817   T   T   T
 16.4887846490344998 15.0349473075150168  8.0749405370315817   T   T   T
  5.2703259179343105  3.8164885764148262 13.6841699025816776   T   T   T
 10.8795552834844003  3.8164885764148262 13.6841699025816776   T   T   T
 16.4887846490344998  3.8164885764148262 13.6841699025816776   T   T   T
  5.2703259179343105  9.4257179419649209 13.6841699025816776   T   T   T
 10.8795552834844003  9.4257179419649209 13.6841699025816776   T   T   T
 16.4887846490344998  9.4257179419649209 13.6841699025816776   T   T   T
  5.2703259179343105 15.0349473075150168 13.6841699025816776   T   T   T
 10.8795552834844003 15.0349473075150168 13.6841699025816776   T   T   T
 16.4887846490344998 15.0349473075150168 13.6841699025816776   T   T   T
  1.0118739540314052  2.4657111747676344  3.8164885731286819   T   T   T
  6.6211033195815014  2.4657111747676344  3.8164885731286819   T   T   T
 12.2303326851315965  2.4657111747676344  3.8164885731286819   T   T   T
  1.0118739540314052  8.0749405403177299  3.8164885731286819   T   T   T
  6.6211033195815014  8.0749405403177299  3.8164885731286819   T   T   T
 12.2303326851315965  8.0749405403177299  3.8164885731286819   T   T   T
  1.0118739540314052 13.6841699058678241  3.8164885731286819   T   T   T
  6.6211033195815014 13.6841699058678241  3.8164885731286819   T   T   T
 12.2303326851315965 13.6841699058678241  3.8164885731286819   T   T   T
  1.0118739540314052  2.4657111747676344  9.4257179386787779   T   T   T
  6.6211033195815014  2.4657111747676344  9.4257179386787779   T   T   T
 12.2303326851315965  2.4657111747676344  9.4257179386787779   T   T   T
  1.0118739540314052  8.0749405403177299  9.4257179386787779   T   T   T
  6.6211033195815014  8.0749405403177299  9.4257179386787779   T   T   T
 12.2303326851315965  8.0749405403177299  9.4257179386787779   T   T   T
  1.0118739540314052 13.6841699058678241  9.4257179386787779   T   T   T
  6.6211033195815014 13.6841699058678241  9.4257179386787779   T   T   T
 12.2303326851315965 13.6841699058678241  9.4257179386787779   T   T   T
  1.0118739540314052  2.4657111747676344 15.0349473042288704   T   T   T
  6.6211033195815014  2.4657111747676344 15.0349473042288704   T   T   T
 12.2303326851315965  2.4657111747676344 15.0349473042288704   T   T   T
  1.0118739540314052  8.0749405403177299 15.0349473042288704   T   T   T
  6.6211033195815014  8.0749405403177299 15.0349473042288704   T   T   T
 12.2303326851315965  8.0749405403177299 15.0349473042288704   T   T   T
  1.0118739540314052 13.6841699058678241 15.0349473042288704   T   T   T
  6.6211033195815014 13.6841699058678241 15.0349473042288704   T   T   T
 12.2303326851315965 13.6841699058678241 15.0349473042288704   T   T   T
  3.8164886368064530  2.4657111747676344  5.2703258542565363   T   T   T
  9.4257180023565486  2.4657111747676344  5.2703258542565363   T   T   T
 15.0349473679066445  2.4657111747676344  5.2703258542565363   T   T   T
  3.8164886368064530  8.0749405403177299  5.2703258542565363   T   T   T
  9.4257180023565486  8.0749405403177299  5.2703258542565363   T   T   T
 15.0349473679066445  8.0749405403177299  5.2703258542565363   T   T   T
  3.8164886368064530 13.6841699058678241  5.2703258542565363   T   T   T
  9.4257180023565486 13.6841699058678241  5.2703258542565363   T   T   T
 15.0349473679066445 13.6841699058678241  5.2703258542565363   T   T   T
  3.8164886368064530  2.4657111747676344 10.8795552198066297   T   T   T
  9.4257180023565486  2.4657111747676344 10.8795552198066297   T   T   T
 15.0349473679066445  2.4657111747676344 10.8795552198066297   T   T   T
  3.8164886368064530  8.0749405403177299 10.8795552198066297   T   T   T
  9.4257180023565486  8.0749405403177299 10.8795552198066297   T   T   T
 15.0349473679066445  8.0749405403177299 10.8795552198066297   T   T   T
  3.8164886368064530 13.6841699058678241 10.8795552198066297   T   T   T
  9.4257180023565486 13.6841699058678241 10.8795552198066297   T   T   T
 15.0349473679066445 13.6841699058678241 10.8795552198066297   T   T   T
  3.8164886368064530  2.4657111747676344 16.4887845853567256   T   T   T
  9.4257180023565486  2.4657111747676344 16.4887845853567256   T   T   T
 15.0349473679066445  2.4657111747676344 16.4887845853567256   T   T   T
  3.8164886368064530  8.0749405403177299 16.4887845853567256   T   T   T
  9.4257180023565486  8.0749405403177299 16.4887845853567256   T   T   T
 15.0349473679066445  8.0749405403177299 16.4887845853567256   T   T   T
  3.8164886368064530 13.6841699058678241 16.4887845853567256   T   T   T
  9.4257180023565486 13.6841699058678241 16.4887845853567256   T   T   T
 15.0349473679066445 13.6841699058678241 16.4887845853567256   T   T   T
  2.4657112351592629  3.8164885764148262  1.0118738903536328   T   T   T
  8.0749406007093540  3.8164885764148262  1.0118738903536328   T   T   T
 13.6841699662594483  3.8164885764148262  1.0118738903536328   T   T   T
  2.4657112351592629  9.4257179419649209  1.0118738903536328   T   T   T
  8.0749406007093540  9.4257179419649209  1.0118738903536328   T   T   T
 13.6841699662594483  9.4257179419649209  1.0118738903536328   T   T   T
  2.4657112351592629 15.0349473075150168  1.0118738903536328   T   T   T
  8.0749406007093540 15.0349473075150168  1.0118738903536328   T   T   T
 13.6841699662594483 15.0349473075150168  1.0118738903536328   T   T   T
  2.4657112351592629  3.8164885764148262  6.6211032559037299   T   T   T
  8.0749406007093540  3.8164885764148262  6.6211032559037299   T   T   T
 13.6841699662594483  3.8164885764148262  6.6211032559037299   T   T   T
  2.4657112351592629  9.4257179419649209  6.6211032559037299   T   T   T
  8.0749406007093540  9.4257179419649209  6.6211032559037299   T   T   T
 13.6841699662594483  9.4257179419649209  6.6211032559037299   T   T   T
  2.4657112351592629 15.0349473075150168  6.6211032559037299   T   T   T
  8.0749406007093540 15.0349473075150168  6.6211032559037299   T   T   T
 13.6841699662594483 15.0349473075150168  6.6211032559037299   T   T   T
  2.4657112351592629  3.8164885764148262 12.2303326214538277   T   T   T
  8.0749406007093540  3.8164885764148262 12.2303326214538277   T   T   T
 13.6841699662594483  3.8164885764148262 12.2303326214538277   T   T   T
  2.4657112351592629  9.4257179419649209 12.2303326214538277   T   T   T
  8.0749406007093540  9.4257179419649209 12.2303326214538277   T   T   T
 13.6841699662594483  9.4257179419649209 12.2303326214538277   T   T   T
  2.4657112351592629 15.0349473075150168 12.2303326214538277   T   T   T
  8.0749406007093540 15.0349473075150168 12.2303326214538277   T   T   T
 13.6841699662594483 15.0349473075150168 12.2303326214538277   T   T   T
