 C  H  O 
 1.0000000000000000
    18.6805837920332394    0.0000246720981160   -0.0000126609360050
    -9.3402705293441954   16.1778789722778562    0.0000126609412370
    -0.0000109642882980    0.0000063302374590   16.2654347048200343
 C   H   O  
 144 288 144
Cartesian
  0.5599846244901072  1.2433409425769577  7.9980958578836852
  9.9002765205068730  1.2433532786262824  7.9980895274159201
 -4.1101506401820638  9.3322804287157926  7.9981021883542089
  5.2301412558345888  9.3322927647648424  7.9980958578862493
  0.5599791423460532  1.2433441076956757 16.1308132102937023
  9.9002710383627175  1.2433564437448656 16.1308068798258688
 -4.1101561223262237  9.3322835938345463 16.1308195407642074
  5.2301357736904119  9.3322959298835499 16.1308132102961856
  3.3139964808747213  7.9512200078444693  7.9981036470570865
 12.6542883768913779  7.9512323438935235  7.9980973165890958
 -1.3561387837977836 16.0401594939832286  7.9981099775280393
  7.9841531122191869 16.0401718300323637  7.9981036470598017
  3.3139909987306178  7.9512231729631901 16.1308209994670477
 12.6542828947472223  7.9512355090122675 16.1308146689991077
 -1.3561442659418079 16.0401626591020054 16.1308273299379472
  7.9841476300749754 16.0401749951510411 16.1308209994697940
 -3.8721796851642187  6.9823204833774417  7.9980940775726124
  5.4681122108524374  6.9823328194265013  7.9980877471046332
 -8.5423149498362925 15.0712599695162641  7.9981004080433546
  0.7979769461805346 15.0712723055650457  7.9980940775755620
 -3.8721851673083516  6.9823236484961591 16.1308114299826109
  5.4681067287082286  6.9823359845452497 16.1308050995145891
 -8.5423204319804213 15.0712631346349788 16.1308177604533611
  0.7979714640363437 15.0712754706838865 16.1308114299854815
  3.8733868415979904  6.9823186632550147  3.9317363909512313
 13.2136787376146234  6.9823309993040947  3.9317300604832197
 -0.7967484230742784 15.0712581493936320  3.9317427214222032
  8.5435434729425470 15.0712704854429482  3.9317363909539274
  3.8733813594538837  6.9823218283737818 12.0644537433612467
 13.2136732554704608  6.9823341644228130 12.0644474128933172
 -0.7967539052183431 15.0712613145124834 12.0644600738320786
  8.5435379907983311 15.0712736505616220 12.0644537433639716
 -0.5587965152000340  1.2433334624434380  3.9317459604029943
  8.7814953808164784  1.2433457984927918  3.9317396299352541
 -5.2289317798720827  9.3322729485822986  3.9317522908735589
  4.1113601161445770  9.3322852846313360  3.9317459604055860
 -0.5588019973442437  1.2433366275622180 12.0644633128130305
  8.7814898986723691  1.2433489636114012 12.0644569823451473
 -5.2289372620162569  9.3322761137010382 12.0644696432836263
  4.1113546340004241  9.3322884497500294 12.0644633128155920
 -3.3127937957993367  7.9511988554291095  3.9317358727920464
  6.0274981002172847  7.9512111914781807  3.9317295423240335
 -7.9829290604713936 16.0401383415679391  3.9317422032627274
  1.3573628355455700 16.0401506776169853  3.9317358727949818
 -3.3127992779434776  7.9512020205478162 12.0644532252021239
  6.0274926180731025  7.9512143565968749 12.0644468947340329
 -7.9829345426154692 16.0401415066866377 12.0644595556727605
  1.3573573534012771 16.0401538427357586 12.0644532252048702
  5.2299734973051653  3.9397342739791106  2.5764615923337812
 14.5702653933218276  3.9397466100281617  2.5764552618657541
  0.5598382326330376 12.0286737601179272  2.5764679228042784
  9.9001301286496108 12.0286860961668864  2.5764615923361753
  5.2299680151609680  3.9397374390977147 10.7091789447436838
 14.5702599111777129  3.9397497751470425 10.7091726142759196
  0.5598327504889732 12.0286769252368426 10.7091852752144483
  9.9001246465055033 12.0286892612856864 10.7091789447462737
  3.3140151351633778  2.5584224501023156  2.5764635633716080
 12.6543070311800196  2.5584347861513930  2.5764572329036097
 -1.3561201295086029 10.6473619362412730  2.5764698938421291
  7.9841717665081076 10.6473742722903744  2.5764635633739963
  3.3140096530193563  2.5584256152210743 10.7091809157815003
 12.6543015490356687  2.5584379512701330 10.7091745853137272
 -1.3561256116529545 10.6473651013599788 10.7091872462522737
  7.9841662843638721 10.6473774374090677 10.7091809157840849
  5.4682465112643071  1.5898104648961018  2.5764718401280402
 14.8085384072809934  1.5898228009451705  2.5764655096599922
  0.7981112465921593  9.6787499510351385  2.5764781705985627
 10.1384031426087287  9.6787622870843055  2.5764718401304547
  5.4682410291200867  1.5898136300149390 10.7091891925379414
 14.8085329251369000  1.5898259660637544 10.7091828620701559
  0.7981057644480992  9.6787531161537323 10.7091955230087432
 10.1383976604646406  9.6787654522029367 10.7091891925405385
  3.8732317149506010  1.5897955349734418  6.6428184738235743
 13.2135236109672292  1.5898078710225056  6.6428121433555134
 -0.7969035497214693  9.6787350211124572  6.6428248042940892
  8.5433883462952895  9.6787473571617593  6.6428184738259048
  3.8732262328066240  1.5897987000923841 14.7755358262333516
 13.2135181288231109  1.5898110361412596 14.7755294957655074
 -0.7969090318654168  9.6787381862314721 14.7755421567038034
  8.5433828641511234  9.6787505222803603 14.7755358262359433
  4.1115056884914960  3.9397179093295245  6.6428224423159437
 13.4517975845081299  3.9397302453785490  6.6428161118479156
 -0.5586295761805726 12.0286573954683398  6.6428287727864861
  8.7816623198362151 12.0286697315171924  6.6428224423182902
  4.1115002063474781  3.9397210744480211 14.7755397947257112
 13.4517921023639921  3.9397334104972574 14.7755334642578884
 -0.5586350583245571 12.0286605605867898 14.7755461251961773
  8.7816568376920401 12.0286728966359799 14.7755397947283331
  6.0274612265399998  2.5584079016703014  6.6428302740166671
 15.3677531225565858  2.5584202377193663  6.6428239435486480
  1.3573259618677762 10.6473473878092602  6.6428366044872353
 10.6976178578841843 10.6473597238584006  6.6428302740190110
  6.0274557443955548  2.5584110667890818 14.7755476264264729
 15.3677476404124089  2.5584234028380881 14.7755412959586288
  1.3573204797232690 10.6473505529280583 14.7755539568969727
 10.6976123757400803 10.6473628889770975 14.7755476264290859
  0.5597948046769923  6.6360535025086609  5.2873423156745432
  9.9000867006937217  6.6360658385578430  5.2873359852066564
 -4.1103404599950917 14.7249929886475961  5.2873486461451682
  5.2299514360215635 14.7250053246965802  5.2873423156770549
  0.5597893225328678  6.6360566676274146 13.4200596680845656
  9.9000812185493974  6.6360690036761678 13.4200533376162934
 -4.1103459421393476 14.7249961537660106 13.4200659985549038
  5.2299459538773432 14.7250084898150995 13.4200596680869513
 -1.3561266909539196  5.2546810816337084  5.2873526644763400
  7.9841652050625029  5.2546934176827786  5.2873463340084479
 -6.0262619556260395 13.3436205677725752  5.2873589949469730
  3.3140299403906441 13.3436329038216481  5.2873526644788669
 -1.3561321730980807  5.2546842467524160 13.4200700168863811
  7.9841597229188093  5.2546965828015102 13.4200636864180805
 -6.0262674377698122 13.3436237328913112 13.4200763473567317
  3.3140244582467151 13.3436360689403877 13.4200700168887650
  0.7981343137090894  4.2861303638928678  5.2873365147620790
 10.1384262097258535  4.2861426999418395  5.2873301842941913
 -3.8720009509630340 12.3750698500317657  5.2873428452327396
  5.4682909450535808 12.3750821860809399  5.2873365147646547
  0.7981288315649459  4.2861335290115772 13.4200538671721041
 10.1384207275814209  4.2861458650609174 13.4200475367038159
 -3.8720064331073720 12.3750730151507522 13.4200601976424228
  5.4682854629093356 12.3750853511998180 13.4200538671745218
 -0.7969308741620706  4.2861270658017716  1.2209821756294674
  8.5433610218544764  4.2861394018506607  1.2209758451615884
 -5.4670661388339195 12.3750665519409679  1.2209885060997585
  3.8732257571824800 12.3750788879897353  1.2209821756320960
 -0.7969363563061158  4.2861302309206168  9.3536995280393072
  8.5433555397104683  4.2861425669696276  9.3536931975713564
 -5.4670716209783494 12.3750697170594162  9.3537058585100930
  3.8732202750383156 12.3750820531084020  9.3536995280421174
 -0.5585902190308428  6.6360486625665978  1.2209937172551528
  8.7817016769857386  6.6360609986158412  1.2209873867872816
 -5.2287254837028385 14.7249881487051777  1.2210000477254319
  4.1115664123136542 14.7250004847546467  1.2209937172577221
 -0.5585957011749274  6.6360518276851765  9.3537110696649926
  8.7816961948416932  6.6360641637343090  9.3537047391970489
 -5.2287309658471841 14.7249913138242494  9.3537174001357499
  4.1115609301694951 14.7250036498733845  9.3537110696677566
  1.3573306260053690  5.2546782279588777  1.2209769616317561
 10.6976225220221561  5.2546905640079311  1.2209706311638877
 -3.3128046386670897 13.3436177140977819  1.2209832921020212
  6.0274872573499128 13.3436300501468619  1.2209769616343547
  1.3573251438610470  5.2546813930776270  9.3536943140415953
 10.6976170398777342  5.2546937291266831  9.3536879835736872
 -3.3128101208108762 13.3436208792164699  9.3537006445123847
  6.0274817752057892 13.3436332152655410  9.3536943140444038
  0.5696132400320338  1.2633656619661071  6.9016662140334386
  9.9099051360486126  1.2633779980151396  6.9016598835653111
 -4.1005220246400809  9.3523051481050388  6.9016725445041489
  5.2397698713765557  9.3523174841541081  6.9016662140360570
  0.5696077578878589  1.2633688270848429 15.0343835664434131
  9.9098996539044926  1.2633811631338880 15.0343772359753629
 -4.1005275067842293  9.3523083132237641 15.0343898969141243
  5.2397643892323984  9.3523206492728423 15.0343835664461096
  3.2918297140590038  7.9495620404830083  6.9016734926726055
 12.6321216100756182  7.9495743765320590  6.9016671622046211
 -1.3783055506130770 16.0385015266219177  6.9016798231430894
  7.9619863454035311 16.0385138626709924  6.9016734926752017
  3.2918242319148421  7.9495652056017398 15.0343908450826760
 12.6321161279314644  7.9495775416507808 15.0343845146146347
 -1.3783110327572254 16.0385046917406733 15.0343971755531207
  7.9619808632593720 16.0385170277897515 15.0343908450852037
 -3.8596649675278747  6.9639647753151044  6.9016632107066149
  5.4806269284887472  6.9639771113641649  6.9016568802386162
 -8.5298002321999551 15.0529042614540405  6.9016695411771627
  0.8104916638166274 15.0529165975031205  6.9016632107091382
 -3.8596704496720147  6.9639679404338217 15.0343805631166081
  5.4806214463445944  6.9639802764828946 15.0343742326486645
 -8.5298057143441319 15.0529074265727871 15.0343868935872358
  0.8104861816724889 15.0529197626218298 15.0343805631191731
  3.8608600001870017  6.9639680905735286  2.8353065367408226
 13.2011518962036334  6.9639804266225918  2.8353002062728137
 -0.8092752644850743 15.0529075767124887  2.8353128672112944
  8.5310166315315250 15.0529199127615367  2.8353065367433739
  3.8608545180428480  6.9639712556922682 10.9680238891508175
 13.2011464140594779  6.9639835917413153 10.9680175586828224
 -0.8092807466292252 15.0529107418312282 10.9680302196213759
  8.5310111493873606 15.0529230778802621 10.9680238891533897
 -0.5684446139728324  1.2633598533045960  2.8353152804430897
  8.7718472820438134  1.2633721893536214  2.8353089499750066
 -5.2385798786449120  9.3522993394435261  2.8353216109137258
  4.1017120173716899  9.3523116754925688  2.8353152804457191
 -0.5684500961169725  1.2633630184233127 10.9680326328531059
  8.7718417998996543  1.2633753544723683 10.9680263023850753
 -5.2385853607890782  9.3523025045622425 10.9680389633237176
  4.1017065352275477  9.3523148406113190 10.9680326328556959
 -3.2906399902606647  7.9495379556432084  2.8353044274702648
  6.0496519057559341  7.9495502916922502  2.8352980970022847
 -7.9607752549327930 16.0384774417821419  2.8353107579408996
  1.3795166410838207 16.0384897778311881  2.8353044274727761
 -3.2906454724048149  7.9495411207619249 10.9680217798802673
  6.0496464236117928  7.9495534568109942 10.9680154494122828
 -7.9607807370769414 16.0384806069008619 10.9680281103508346
  1.3795111589396842 16.0384929429499472 10.9680217798828483
  5.2396028855783623  3.9597509473757335  1.4800363525166775
 14.5798947815949802  3.9597632834247904  1.4800300220486988
  0.5694676209062686 12.0486904335146612  1.4800426829873574
  9.9097595169229020 12.0487027695637359  1.4800363525193414
  5.2395974034342299  3.9597541124944686  9.6127537049267424
 14.5798892994508478  3.9597664485435122  9.6127473744586229
  0.5694621387621207 12.0486935986333954  9.6127600353972653
  9.9097540347787501 12.0487059346824452  9.6127537049293377
  3.2918658172149633  2.5567477698361163  1.4800384285769885
 12.6321577132315817  2.5567601058851745  1.4800320981089505
 -1.3782694474571464 10.6456872559750408  1.4800447590476338
  7.9620224485594751 10.6456995920241067  1.4800384285797192
  3.2918603350707953  2.5567509349548478  9.6127557809870261
 12.6321522310874368  2.5567632710039185  9.6127494505189723
 -1.3782749296012811 10.6456904210937946  9.6127621114576005
  7.9620169664153240 10.6457027571428213  9.6127557809896462
  5.4807701761617187  1.5714545660433690  1.4800475815472798
 14.8210620721783357  1.5714669020924306  1.4800412510793317
  0.8106349114896233  9.6603940521822853  1.4800539120179395
 10.1509268075062504  9.6604063882313458  1.4800475815500016
  5.4807646940175854  1.5714577311620845  9.6127649339573225
 14.8210565900341802  1.5714700672111597  9.6127586034892349
  0.8106294293454696  9.6603972173010391  9.6127712644279022
 10.1509213253621073  9.6604095533500693  9.6127649339600048
  3.8607118280408614  1.5714474920795436  5.5463950664736323
 13.2010037240574825  1.5714598281285994  5.5463887360056647
 -0.8094234366312394  9.6603869782184706  5.5464013969442965
  8.5308684593853776  9.6603993142675328  5.5463950664763635
  3.8607063458966953  1.5714506571982598 13.6791124188837561
 13.2009982419133323  1.5714629932473367 13.6791060884157041
 -0.8094289187754038  9.6603901433371817 13.6791187493544246
  8.5308629772412186  9.6604024793862351 13.6791124188863620
  4.1018797955464681  3.9597385315094442  5.5463979570319166
 13.4421716915630842  3.9597508675585065  5.5463916265639250
 -0.5682554691256397 12.0486780176483776  5.5464042875025656
  8.7720364268909901 12.0486903536974719  5.5463979570346265
  4.1018743134023072  3.9597416966281869 13.6791153094420253
 13.4421662094189305  3.9597540326772340 13.6791089789739360
 -0.5682609512697970 12.0486811827671403 13.6791216399127187
  8.7720309447468185 12.0486935188161723 13.6791153094446116
  6.0496215093710743  2.5567385769207296  5.5464053839437346
 15.3899134053876967  2.5567509129697950  5.5463990534757359
  1.3794862446989926 10.6456780630596626  5.5464117144143517
 10.7197781407156381 10.6456903991087160  5.5464053839464489
  6.0496160272269517  2.5567417420394634 13.6791227363538521
 15.3899079232435518  2.5567540780885221 13.6791164058857753
  1.3794807625548708 10.6456812281783790 13.6791290668244923
 10.7197726585714683 10.6456935642274289 13.6791227363564243
  0.5694233540054178  6.6560832176128200  4.1909167924990767
  9.9097152500220247  6.6560955536618573  4.1909104620310123
 -4.1007119106666847 14.7450227037517312  4.1909231229697035
  5.2395799853499341 14.7450350398008023  4.1909167925017172
  0.5694178718612628  6.6560863827315542 12.3236341449091000
  9.9097097678778887  6.6560987187806413 12.3236278144411724
 -4.1007173928108278 14.7450258688705009 12.3236404753797988
  5.2395745032057901 14.7450382049195436 12.3236341449118001
 -1.3782987691750792  5.2530146636462014  4.1909247096241344
  7.9619931268415414  5.2530269996952557  4.1909183791561064
 -6.0484340338471743 13.3419541497851188  4.1909310400947408
  3.2918578621694388 13.3419664858341811  4.1909247096267999
 -1.3783042513192283  5.2530178287649330 12.3236420620341569
  7.9619876446973663  5.2530301648139881 12.3236357315662683
 -6.0484395159913511 13.3419573149038602 12.3236483925048521
  3.2918523800252690 13.3419696509529064 12.3236420620368428
  0.8106593233956575  4.2677754608669831  4.1909097303727663
 10.1509512194122546  4.2677877969160400  4.1909033999047036
 -3.8594759412764330 12.3567149470058979  4.1909160608433131
  5.4808159547401791 12.3567272830549566  4.1909097303753509
  0.8106538412515032  4.2677786259857164 12.3236270827827425
 10.1509457372681364  4.2677909620347529 12.3236207523148487
 -3.8594814234205779 12.3567181121246268 12.3236334132535141
  5.4808104725960334 12.3567304481736642 12.3236270827854728
 -0.8094637746435887  4.2677739279451608  0.1245568910716912
  8.5308281213730410  4.2677862639942274  0.1245505606036384
 -5.4795990393157039 12.3567134140840533  0.1245632215424077
  3.8606928567009362 12.3567257501331493  0.1245568910742833
 -0.8094692567877509  4.2677770930638639  8.2572742434817794
  8.5308226392288873  4.2677894291129315  8.2572679130137132
 -5.4796045214598381 12.3567165792027982  8.2572805739523236
  3.8606873745567953 12.3567289152518569  8.2572742434842894
 -0.5682313785667247  6.6560848851684513  0.1245677671804722
  8.7720605174498925  6.6560972212175002  0.1245614367124121
 -5.2383666432388365 14.7450243713073963  0.1245740976512390
  4.1019252527777930 14.7450367073564408  0.1245677671831509
 -0.5682368607108891  6.6560880502871846  8.2572851195905539
  8.7720550353057600  6.6561003863362460  8.2572787891225161
 -5.2383721253829618 14.7450275364260968  8.2572914500611301
  4.1019197706336525 14.7450398724751519  8.2572851195931189
  1.3794897889124018  5.2530116591375826  0.1245519429407870
 10.7197816849290071  5.2530239951866484  0.1245456124727321
 -3.2906454757596637 13.3419511452765231  0.1245582734115505
  6.0496464202569324 13.3419634813256014  0.1245519429433876
  1.3794843067682621  5.2530148242563142  8.2572692953508557
 10.7197762027848995  5.2530271603053658  8.2572629648828109
 -3.2906509579038414 13.3419543103952360  8.2572756258214106
  6.0496409381127929 13.3419666464442948  8.2572692953533906
  0.9704331906658155  2.1494059055111303  0.2979448980568410
 10.3107250866823890  2.1494182415600629  0.2979385675888170
 -3.6997020740062538 10.2383453916500535  0.2979512285274881
  5.6405898220103916 10.2383577276991851  0.2979448980595468
  0.9704277085216798  2.1494090706298188  8.4306622504668809
 10.3107196045381979  2.1494214066787571  8.4306559199987934
 -3.6997075561504036 10.2383485567687984  8.4306685809375459
  5.6405843398662254 10.2383608928178873  8.4306622504695330
  2.3241064250735417  7.8536391842506932  0.2979608008745056
 11.6643983210901965  7.8536515202997217  0.2979544704064683
 -2.3460288395983939 15.9425786703896506  0.2979671313450123
  6.9942630564181290 15.9425910064387288  0.2979608008770762
  2.3241009429294230  7.8536423493694221  8.4306781532844823
 11.6643928389459983  7.8536546854184479  8.4306718228165050
 -2.3460343217424926 15.9425818355083617  8.4306844837549999
  6.9942575742739921 15.9425941715574133  8.4306781532871007
 -3.2927181943655279  6.1738244039142591  0.2979386602796267
  6.0475737016510855  6.1738367399633178  0.2979323298116359
 -7.9628534590376763 14.2627638900532610  0.2979449907501909
  1.3774384369788755 14.2627762261023747  0.2979386602821640
 -3.2927236765096723  6.1738275690329631  8.4306560126896439
  6.0475682195069203  6.1738399050820654  8.4306496822216310
 -7.9628589411817741 14.2627670551719454  8.4306623431602468
  1.3774329548347186 14.2627793912211658  8.4306560126921344
  3.2939312906788958  6.1738305730244205  4.3643021467029293
 12.6342231866955359  6.1738429090734925  4.3642958162349181
 -1.3762039739931018 14.2627700591635129  4.3643084771734415
  7.9640879220233911 14.2627823952124153  4.3643021467055210
  3.2939258085347305  6.1738337381431538 12.4970194991129535
 12.6342177045513857  6.1738460741922285 12.4970131686449442
 -1.3762094561372822 14.2627732242821992 12.4970258295834746
  7.9640824398792835 14.2627855603311851 12.4970194991155346
 -0.9692408957933356  2.1493966348331321  4.3643203306094964
  8.3710510002233907  2.1494089708820270  4.3643140001413903
 -5.6393761604654280 10.2383361209720896  4.3643266610801428
  3.7009157355511664 10.2383484570211625  4.3643203306121405
 -0.9692463779374245  2.1493997999518051 12.4970376830194763
  8.3710455180791818  2.1494121360008394 12.4970313525514385
 -5.6393816426095755 10.2383392860908131 12.4970440134901590
  3.7009102534070140 10.2383516221399322 12.4970376830221639
 -2.3228905821334522  7.8536196879426683  4.3642976541413958
  7.0174013138831537  7.8536320239917128  4.3642913236733714
 -6.9930258468056161 15.9425591740816230  4.3643039846119898
  2.3472660492108646 15.9425715101306764  4.3642976541439014
 -2.3228960642776348  7.8536228530614069 12.4970150065514041
  7.0173958317390168  7.8536351891104585 12.4970086760833912
 -6.9930313289497716 15.9425623392003359 12.4970213370219678
  2.3472605670667970 15.9425746752494284 12.4970150065539674
  5.6403051823273538  4.8458637152356046  3.0090255400252186
 14.9805970783439637  4.8458760512846686  3.0090192095572155
  0.9701699176552792 12.9348032013745815  3.0090318704958761
 10.3104618136719530 12.9348155374237503  3.0090255400279058
  5.6402997001832187  4.8458668803543645 11.1417428924352606
 14.9805915961998082  4.8458792164033051 11.1417365619671926
  0.9701644355110981 12.9348063664932695 11.1417492229058386
 10.3104563315277549 12.9348187025424117 11.1417428924379074
  2.3241185410556704  2.4607197892137749  3.0090276724605993
 11.6644104370722648  2.4607321252628314  3.0090213419926068
 -2.3460167236164988 10.5496592753526919  3.0090340029312532
  6.9942751724001004 10.5496716114017701  3.0090276724632750
  2.3241130589114665  2.4607229543325042 11.1417450248706373
 11.6644049549282727  2.4607352903815922 11.1417386944025534
 -2.3460222057605291 10.5496624404714723 11.1417513553412117
  6.9942696902559707 10.5496747765204795 11.1417450248732539
  6.0478048051391138  0.7813900535246275  3.0090434838272331
 15.3880967011557033  0.7814023895737066  3.0090371533592175
  1.3776695404670367  8.8703295396634960  3.0090498142978781
 10.7179614364836961  8.8703418757125281  3.0090434838299149
  6.0477993229949867  0.7813932186432980 11.1417608362373048
 15.3880912190115069  0.7814055546924920 11.1417545057691907
  1.3776640583228279  8.8703327047823404 11.1417671667078597
 10.7179559543394909  8.8703450408313014 11.1417608362399143
  3.2936672814002073  0.7813719859502853  7.0753828285987650
 12.6339591774168358  0.7813843219993500  7.0753764981307530
 -1.3764679832718960  8.8703114720891829  7.0753891590693954
  7.9638239127446422  8.8703238081381564  7.0753828286014597
  3.2936617992559771  0.7813751510689118 15.2081001810088559
 12.6339536952726750  0.7813874871180706 15.2080938505407790
 -1.3764734654161681  8.8703146372077732 15.2081065114795244
  7.9638184306005213  8.8703269732569083 15.2081001810114600
  3.7011683346865150  4.8458462543889675  7.0753873877021629
 13.0414602307031142  4.8458585904380405  7.0753810572341740
 -0.9689669299856104 12.9347857405279481  7.0753937181728128
  8.3713249660309632 12.9347980765771702  7.0753873877048834
  3.7011628525422871  4.8458494195078430 15.2081047401122600
 13.0414547485589587  4.8458617555568093 15.2080984096442080
 -0.9689724121298295 12.9347889056468297 15.2081110705829179
  8.3713194838868130 12.9348012416958085 15.2081047401148606
  7.0173552149659821  2.4607031114861093  7.0754031848655972
 16.3576471109826223  2.4607154475351711  7.0753968543976038
  2.3472199502939493 10.5496425976250343  7.0754095153362453
 11.6875118463107093 10.5496549336740664  7.0754031848683203
  7.0173497328219767  2.4607062766048320 15.2081205372756951
 16.3576416288384898  2.4607186126539045 15.2081142068076378
  2.3472144681499745 10.5496457627437401 15.2081268677463690
 11.6875063641664987 10.5496580987928006 15.2081205372782922
  0.9700981499522192  7.5421825632870547  5.7199168034815138
 10.3103900459688074  7.5421948993360388  5.7199104730134520
 -3.7000371147199043 15.6311220494259295  5.7199231339521015
  5.6402547812967363 15.6311343854750575  5.7199168034841312
  0.9700926678080591  7.5421857284057499 13.8526341558915185
 10.3103845638247442  7.5421980644549818 13.8526278254236228
 -3.7000425968639714 15.6311252145448627 13.8526404863622332
  5.6402492991526199 15.6311375505938770 13.8526341558941972
 -2.3460087224491581  5.1569473778654800  5.7199353583571533
  6.9942831735675828  5.1569597139145493  5.7199290278891084
 -7.0161439871212297 13.2458868640043974  5.7199416888277543
  2.3241479088953767 13.2458992000534650  5.7199353583597778
 -2.3460142045932715  5.1569505429842062 13.8526527107671580
  6.9942776914232141  5.1569628790332560 13.8526463802992357
 -7.0161494692655788 13.2458900291231263 13.8526590412378710
  2.3241424267510888 13.2459023651721850 13.8526527107698509
  1.3777195676043330  3.4777331510968237  5.7199071892840800
 10.7180114636208916  3.4777454871459321  5.7199008588160325
 -3.2924156970677405 11.5666726372357225  5.7199135197547104
  6.0478761989489023 11.5666849732847421  5.7199071892867241
  1.3777140854601926  3.4777363162155512 13.8526245416940696
 10.7180059814768907  3.4777486522644785 13.8526182112261598
 -3.2924211792118108 11.5666758023543554 13.8526308721647773
  6.0478707168047858 11.5666881384033964 13.8526245416968017
 -1.3765117531039461  3.4777276007361233  1.6535571219219762
  7.9637801429127331  3.4777399367852677  1.6535507914539214
 -6.0466470177761549 11.5666670868748582  1.6535634523927085
  3.2936448782406038 11.5666794229241070  1.6535571219245879
 -1.3765172352481296  3.4777307658547776  9.7862744743320498
  7.9637746607684994  3.4777431019038811  9.7862681438639996
 -6.0466524999201905 11.5666702519937630  9.7862808048026224
  3.2936393960964536 11.5666825880428483  9.7862744743345864
 -0.9688899002049359  7.5421787786772425  1.6535777289091806
  8.3714019958117092  7.5421911147262124  1.6535713984411353
 -5.6390251648771121 15.6311182648163012  1.6535840593798967
  3.7012667311395968 15.6311306008651680  1.6535777289117810
 -0.9688953823491289  7.5421819437960398  9.7862950813192491
  8.3713965136675217  7.5421942798450514  9.7862887508511935
 -5.6390306470211513 15.6311214299348524  9.7863014117897880
  3.7012612489954666 15.6311337659838578  9.7862950813217822
  2.3472162317920757  5.1569430356895225  1.6535489168618831
 11.6875081278086093  5.1569553717386007  1.6535425863938256
 -2.3229190328798408 13.2458825218284542  1.6535552473325994
  7.0173728631366163 13.2458948578775431  1.6535489168644946
  2.3472107496480188  5.1569462008082541  9.7862662692719304
 11.6875026456646207  5.1569585368572977  9.7862599388039637
 -2.3229245150241788 13.2458856869471884  9.7862725997425173
  7.0173673809924413 13.2458980229962471  9.7862662692745239
  1.3630069989051974  0.1368117843302849  0.3388771677279994
 10.7032988949218453  0.1368241203793971  0.3388708372600264
 -3.3071282657667740  8.2257512704693223  0.3388834981987112
  6.0331636302498284  8.2257636065182620  0.3388771677307231
  1.3630015167611551  0.1368149494491171  8.4715945201380993
 10.7032934127776276  0.1368272854980833  8.4715881896699958
 -3.3071337479109935  8.2257544355880103  8.4716008506087181
  6.0331581481056418  8.2257667716370246  8.4715945201406893
  8.5409093195356949  1.1109762562126251  0.3388877531851362
 17.8812012155523163  1.1109885922616971  0.3388814227171526
  3.8707740548635390  9.1999157423514824  0.3388940836557828
 13.2110659508802275  9.1999280784005411  0.3388877531877134
  8.5409038373915500  1.1109794213312565  8.4716051055951151
 17.8811957334081804  1.1109917573803685  8.4715987751271449
  3.8707685727194385  9.1999189074702290  8.4716114360657588
 13.2110604687361022  9.1999312435192380  8.4716051055977424
  4.1083289633224718  6.8401548435196959  0.3388821482781934
 13.4486208593390231  6.8401671795687120  0.3388758178102032
 -0.5618063013496215 14.9290943296586569  0.3388884787487492
  8.7784855946671030 14.9291066657077707  0.3388821482807246
  4.1083234811783189  6.8401580086384151  8.4715995006882014
 13.4486153771949120  6.8401703446874844  8.4715931702201992
 -0.5618117834936989 14.9290974947774799  8.4716058311586924
  8.7784801125228213 14.9291098308264694  8.4715995006907896
  5.2331749546574446  6.8401474875499222  4.4052355265414658
 14.5734668506740750  6.8401598235989578  4.4052291960734760
  0.5630396899853012 14.9290869736889622  4.4052418570119913
  9.9033315860019862 14.9290993097380316  4.4052355265440131
  5.2331694725132909  6.8401506526686582 12.5379528789514829
 14.5734613685299355  6.8401629887176858 12.5379465484834949
  0.5630342078411467 14.9290901388076875 12.5379592094220254
  9.9033261038578129 14.9291024748566930 12.5379528789540622
  7.9784748905436436  0.1368163005468473  4.4052463188005468
 17.3187667865601576  0.1368286365959267  4.4052399883326299
  3.3083396258714663  8.2257557866857578  4.4052526492712518
 12.6486315218880723  8.2257681227348147  4.4052463188032585
  7.9784694083994747  0.1368194656655818 12.5379636712105729
 17.3187613044160535  0.1368318017146842 12.5379573407426292
  3.3083341437272922  8.2257589518044689 12.5379700016812645
 12.6486260397439043  8.2257712878535045 12.5379636712132783
  0.8005734332131296  1.1109560170672552  4.4052411154239515
 10.1408653292296904  1.1109683531162760  4.4052347849558711
 -3.8695618314589604  9.1998955032062177  4.4052474458945818
  5.4707300645576158  9.1999078392552160  4.4052411154265272
  0.8005679510689543  1.1109591821860363 12.5379584678339544
 10.1408598470855207  1.1109715182350526 12.5379521373659166
 -3.8695673136030697  9.1998986683249537 12.5379647983046070
  5.4707245824135207  9.1999110043739929 12.5379584678365834
  6.0331301189364268  2.8333185656124424  3.0499748638869235
 15.3734220149530021  2.8333309016614669  3.0499685334189004
  1.3629948542643309 10.9222580517513439  3.0499811943575565
 10.7032867502809967 10.9222703878003653  3.0499748638895881
  6.0331246367923503  2.8333217307312251 11.1826922162970011
 15.3734165328089283  2.8333340667802025 11.1826858858289366
  1.3629893721201825 10.9222612168700426 11.1826985467675613