 C  H  N 
 1.0000000000000000
    22.0000000000000000    0.0000000000000000    0.0000000000000000
     0.0000000000000000   22.0000000000000000    0.0000000000000000
     0.0000000000000000    0.0000000000000000   22.0000000000000000
 C   H   N  
   3   4   2
Cartesian
  5.8693656102898553  6.6671412129481959  5.8548048996606079
  4.9844491721704278  5.6814443751471133  5.3537305052295387
  5.7214810463205570  4.9848206917176601  4.4116843169200148
  5.4719927914994937  4.1539311498178364  3.7750762041282599
  3.9617551926146146  5.5042263344604860  5.6363040842854115
  5.6825562934309728  7.4163355578246488  6.6065072679931180
  7.7541010276863940  5.3111053714447891  3.8268302574514710
  6.9599479781237878  5.5615213355380009  4.3938356329984884
  7.0766008878638997  6.6013439711012705  5.2749168313330870
