 C  H 
 1.0000000000000000
    22.0000000000000000    0.0000000000000000    0.0000000000000000
     0.0000000000000000   22.0000000000000000    0.0000000000000000
     0.0000000000000000    0.0000000000000000   22.0000000000000000
 C   H  
   6   6
Cartesian
  6.0612307900140063  3.6647715429210490  6.6096087057463064
  5.2283292112816850  6.3352301239318560  6.6506446261941958
  6.6464121969061978  4.5662450818400879  7.5049285840691331
  4.6431478041815364  5.4337565852352059  5.7553247477910716
  6.2299614080875427  5.9014743724444898  7.5254465438324143
  5.0595985933570908  4.0985272945920759  5.7348067878576119
  6.3836052355569217  2.6311709023930989  6.5937257589221137
  4.9059547635793095  7.3688307635939312  6.6665275762597718
  7.4217754129724858  4.2304748690973994  8.1821125194682409
  3.8677845853623394  5.7695267979316833  5.0781408153686183
  6.6829501805989979  6.5993048002524510  8.2185134245799993
  4.6066098181760857  3.4006968658205161  5.0417399099098077
