 C  H  O 
 1.0000000000000000
    16.3234867836736548   -0.0000000000000000    0.0488317763659525
    -0.0000000000000000   11.7803770333323570   -0.0000000000000000
    -7.2141556067947343   -0.0000000000000000   14.6962598733653635
 C   H   O  
  72  72 144
Selective dynamics
Cartesian
 -1.6321539102006268  0.0211094801325239  4.8942582138682003   T   T   T
  3.8090083510239245  0.0211094801325239  4.9105354726568491   T   T   T
  9.2501706122484801  0.0211094801325239  4.9268127314455050   T   T   T
 -1.6321539102006268  5.9112979967986803  4.8942582138682003   T   T   T
  3.8090083510239245  5.9112979967986803  4.9105354726568491   T   T   T
  9.2501706122484801  5.9112979967986803  4.9268127314455050   T   T   T
 -4.0368724457988669  0.0211094801325239  9.7930115049899804   T   T   T
  1.4042898154256807  0.0211094801325239  9.8092887637785999   T   T   T
  6.8454520766502478  0.0211094801325239  9.8255660225672763   T   T   T
 -4.0368724457988669  5.9112979967986803  9.7930115049899804   T   T   T
  1.4042898154256807  5.9112979967986803  9.8092887637785999   T   T   T
  6.8454520766502478  5.9112979967986803  9.8255660225672763   T   T   T
 -6.4415909813971171  0.0211094801325238 14.6917647961117428   T   T   T
 -1.0004287201725639  0.0211094801325238 14.7080420549004032   T   T   T
  4.4407335410520012  0.0211094801325238 14.7243193136890405   T   T   T
 -6.4415909813971171  5.9112979967986803 14.6917647961117428   T   T   T
 -1.0004287201725639  5.9112979967986803 14.7080420549004032   T   T   T
  4.4407335410520012  5.9112979967986803 14.7243193136890405   T   T   T
  4.6685973277737158  5.8690790365336296  0.0207729289454151   T   T   T
 10.1097595889982852  5.8690790365336296  0.0370501877340659   T   T   T
 15.5509218502228439  5.8690790365336296  0.0533274465227168   T   T   T
  4.6685973277737158 11.7592675531997912  0.0207729289454151   T   T   T
 10.1097595889982852 11.7592675531997912  0.0370501877340659   T   T   T
 15.5509218502228439 11.7592675531997912  0.0533274465227168   T   T   T
  2.2638787921754755  5.8690790365336296  4.9195262200671923   T   T   T
  7.7050410534000280  5.8690790365336296  4.9358034788558411   T   T   T
 13.1462033146246124  5.8690790365336296  4.9520807376444926   T   T   T
  2.2638787921754755 11.7592675531997912  4.9195262200671923   T   T   T
  7.7050410534000280 11.7592675531997912  4.9358034788558411   T   T   T
 13.1462033146246124 11.7592675531997912  4.9520807376444926   T   T   T
 -0.1408397434227731  5.8690790365336296  9.8182795111889316   T   T   T
  5.3003225178017734  5.8690790365336296  9.8345567699776257   T   T   T
 10.7414847790263437  5.8690790365336296  9.8508340287662701   T   T   T
 -0.1408397434227731 11.7592675531997912  9.8182795111889316   T   T   T
  5.3003225178017734 11.7592675531997912  9.8345567699776257   T   T   T
 10.7414847790263437 11.7592675531997912  9.8508340287662701   T   T   T
  3.4662380599746028  2.9662037384656017  2.4701495745063049   T   T   T
  8.9074003211991499  2.9662037384656017  2.4864268332949568   T   T   T
 14.3485625824237033  2.9662037384656017  2.5027040920836106   T   T   T
  3.4662380599746028  8.8563922551317553  2.4701495745063049   T   T   T
  8.9074003211991499  8.8563922551317553  2.4864268332949568   T   T   T
 14.3485625824237033  8.8563922551317553  2.5027040920836106   T   T   T
  1.0615195243763498  2.9662037384656017  7.3689028656280797   T   T   T
  6.5026817856008972  2.9662037384656017  7.3851801244167357   T   T   T
 11.9438440468254683  2.9662037384656017  7.4014573832053783   T   T   T
  1.0615195243763498  8.8563922551317553  7.3689028656280797   T   T   T
  6.5026817856008972  8.8563922551317553  7.3851801244167357   T   T   T
 11.9438440468254683  8.8563922551317553  7.4014573832053783   T   T   T
 -1.3431990112218959  2.9662037384656017 12.2676561567498457   T   T   T
  4.0979632500026453  2.9662037384656017 12.2839334155385096   T   T   T
  9.5391255112272262  2.9662037384656017 12.3002106743271611   T   T   T
 -1.3431990112218959  8.8563922551317553 12.2676561567498457   T   T   T
  4.0979632500026453  8.8563922551317553 12.2839334155385096   T   T   T
  9.5391255112272262  8.8563922551317553 12.3002106743271611   T   T   T
 -0.4297946424015046  2.9239847782005537  2.4448815683072977   T   T   T
  5.0113676188230523  2.9239847782005537  2.4611588270959550   T   T   T
 10.4525298800475959  2.9239847782005537  2.4774360858846061   T   T   T
 -0.4297946424015046  8.8141732948666984  2.4448815683072977   T   T   T
  5.0113676188230523  8.8141732948666984  2.4611588270959550   T   T   T
 10.4525298800475959  8.8141732948666984  2.4774360858846061   T   T   T
 -2.8345131779997539  2.9239847782005537  7.3436348594290823   T   T   T
  2.6066490832248013  2.9239847782005537  7.3599121182177383   T   T   T
  8.0478113444493413  2.9239847782005537  7.3761893770063809   T   T   T
 -2.8345131779997539  8.8141732948666984  7.3436348594290823   T   T   T
  2.6066490832248013  8.8141732948666984  7.3599121182177383   T   T   T
  8.0478113444493413  8.8141732948666984  7.3761893770063809   T   T   T
 -5.2392317135979924  2.9239847782005537 12.2423881505508412   T   T   T
  0.2019305476265590  2.9239847782005537 12.2586654093395264   T   T   T
  5.6430928088511090  2.9239847782005537 12.2749426681281726   T   T   T
 -5.2392317135979924  8.8141732948666984 12.2423881505508412   T   T   T
  0.2019305476265590  8.8141732948666984 12.2586654093395264   T   T   T
  5.6430928088511090  8.8141732948666984 12.2749426681281726   T   T   T
  2.2924210986808924  5.3296014011834130  1.0089046664435293   T   T   T
  7.7335833599054489  5.3296014011834130  1.0251819252321805   T   T   T
 13.1747456211300165  5.3296014011834130  1.0414591840208289   T   T   T
  2.2924210986808924 11.2197899178495799  1.0089046664435293   T   T   T
  7.7335833599054489 11.2197899178495799  1.0251819252321805   T   T   T
 13.1747456211300165 11.2197899178495799  1.0414591840208289   T   T   T
 -0.1122974369173585  5.3296014011834130  5.9076579575652950   T   T   T
  5.3288648243071970  5.3296014011834130  5.9239352163539607   T   T   T
 10.7700270855317548  5.3296014011834130  5.9402124751426006   T   T   T
 -0.1122974369173584 11.2197899178495799  5.9076579575652950   T   T   T
  5.3288648243071970 11.2197899178495799  5.9239352163539607   T   T   T
 10.7700270855317548 11.2197899178495799  5.9402124751426006   T   T   T
 -2.5170159725156034  5.3296014011834121 10.8064112486870645   T   T   T
  2.9241462887089518  5.3296014011834121 10.8226885074757284   T   T   T
  8.3653085499334967  5.3296014011834121 10.8389657662643906   T   T   T
 -2.5170159725156034 11.2197899178495799 10.8064112486870645   T   T   T
  2.9241462887089518 11.2197899178495799 10.8226885074757284   T   T   T
  8.3653085499334967 11.2197899178495799 10.8389657662643906   T   T   T
  0.7440223188922045  0.5605871154827491  3.9061264763700834   T   T   T
  6.1851845801167613  0.5605871154827489  3.9224037351587366   T   T   T
 11.6263468413413076  0.5605871154827491  3.9386809939473855   T   T   T
  0.7440223188922045  6.4507756321489076  3.9061264763700838   T   T   T
  6.1851845801167613  6.4507756321489076  3.9224037351587362   T   T   T
 11.6263468413413076  6.4507756321489076  3.9386809939473855   T   T   T
 -1.6606962167060439  0.5605871154827489  8.8048797674918546   T   T   T
  3.7804660445185161  0.5605871154827491  8.8211570262805203   T   T   T
  9.2216283057430726  0.5605871154827489  8.8374342850691754   T   T   T
 -1.6606962167060439  6.4507756321489067  8.8048797674918546   T   T   T
  3.7804660445185161  6.4507756321489067  8.8211570262805203   T   T   T
  9.2216283057430726  6.4507756321489067  8.8374342850691754   T   T   T
 -4.0654147523042869  0.5605871154827489 13.7036330586136224   T   T   T
  1.3757475089202675  0.5605871154827486 13.7199103174022827   T   T   T
  6.8169097701448269  0.5605871154827489 13.7361875761909644   T   T   T
 -4.0654147523042869  6.4507756321489067 13.7036330586136224   T   T   T
  1.3757475089202675  6.4507756321489067 13.7199103174022827   T   T   T
  6.8169097701448269  6.4507756321489067 13.7361875761909644   T   T   T
  1.9463815866913257  2.3845071428503282  1.4567498308091913   T   T   T
  7.3875438479158770  2.3845071428503282  1.4730270895978421   T   T   T
 12.8287061091404535  2.3845071428503282  1.4893043483864943   T   T   T
  1.9463815866913257  8.2746956595164729  1.4567498308091915   T   T   T
  7.3875438479158770  8.2746956595164729  1.4730270895978421   T   T   T
 12.8287061091404535  8.2746956595164729  1.4893043483864943   T   T   T
 -0.4583369489069179  2.3845071428503282  6.3555031219309672   T   T   T
  4.9828253123176385  2.3845071428503282  6.3717803807196320   T   T   T
 10.4239875735421972  2.3845071428503282  6.3880576395082667   T   T   T
 -0.4583369489069179  8.2746956595164729  6.3555031219309672   T   T   T
  4.9828253123176385  8.2746956595164729  6.3717803807196312   T   T   T
 10.4239875735421972  8.2746956595164729  6.3880576395082667   T   T   T
 -2.8630554845051654  2.3845071428503282 11.2542564130527438   T   T   T
  2.5781067767193888  2.3845071428503282 11.2705336718413971   T   T   T
  8.0192690379439462  2.3845071428503282 11.2868109306300610   T   T   T
 -2.8630554845051654  8.2746956595164729 11.2542564130527438   T   T   T
  2.5781067767193888  8.2746956595164729 11.2705336718413971   T   T   T
  8.0192690379439462  8.2746956595164729 11.2868109306300610   T   T   T
  1.0900618308817660  3.5056813738158294  3.4582813120044116   T   T   T
  6.5312240921063287  3.5056813738158294  3.4745585707930675   T   T   T
 11.9723863533308865  3.5056813738158286  3.4908358295817168   T   T   T
  1.0900618308817660  9.3958698904819880  3.4582813120044116   T   T   T
  6.5312240921063287  9.3958698904819880  3.4745585707930675   T   T   T
 11.9723863533308865  9.3958698904819880  3.4908358295817168   T   T   T
 -1.3146567047164808  3.5056813738158286  8.3570346031261700   T   T   T
  4.1265055565080671  3.5056813738158286  8.3733118619148375   T   T   T
  9.5676678177326355  3.5056813738158286  8.3895891207034854   T   T   T
 -1.3146567047164808  9.3958698904819880  8.3570346031261700   T   T   T
  4.1265055565080671  9.3958698904819880  8.3733118619148375   T   T   T
  9.5676678177326355  9.3958698904819880  8.3895891207034854   T   T   T
 -3.7193752403147271  3.5056813738158286 13.2557878942479483   T   T   T
  1.7217870209098289  3.5056813738158286 13.2720651530366069   T   T   T
  7.1629492821343783  3.5056813738158294 13.2883424118252709   T   T   T
 -3.7193752403147271  9.3958698904819880 13.2557878942479483   T   T   T
  1.7217870209098289  9.3958698904819880 13.2720651530366069   T   T   T
  7.1629492821343783  9.3958698904819880 13.2883424118252709   T   T   T
 -0.9991748829014568  0.5907589248759100  4.0101175199629804   T   T   T
  4.4419873783231045  0.5907589248759100  4.0263947787516239   T   T   T
  9.8831496395476606  0.5907589248759100  4.0426720375402780   T   T   T
 -0.9991748829014568  6.4809474415420709  4.0101175199629804   T   T   T
  4.4419873783231045  6.4809474415420709  4.0263947787516239   T   T   T
  9.8831496395476606  6.4809474415420709  4.0426720375402780   T   T   T
 -3.4038934184997061  0.5907589248759100  8.9088708110847374   T   T   T
  2.0372688427248482  0.5907589248759098  8.9251480698733676   T   T   T
  7.4784311039494016  0.5907589248759100  8.9414253286620404   T   T   T
 -3.4038934184997061  6.4809474415420709  8.9088708110847374   T   T   T
  2.0372688427248482  6.4809474415420709  8.9251480698733676   T   T   T
  7.4784311039494016  6.4809474415420709  8.9414253286620404   T   T   T
 -5.8086119540979482  0.5907589248759100 13.8076241022065211   T   T   T
 -0.3674496928733942  0.5907589248759100 13.8239013609951567   T   T   T
  5.0737125683511586  0.5907589248759100 13.8401786197838153   T   T   T
 -5.8086119540979482  6.4809474415420709 13.8076241022065211   T   T   T
 -0.3674496928733942  6.4809474415420709 13.8239013609951567   T   T   T
  5.0737125683511586  6.4809474415420709 13.8401786197838153   T   T   T
  1.2904076535071016  5.2857553136263355  1.0468853372346145   T   T   T
  6.7315699147316765  5.2857553136263355  1.0631625960232678   T   T   T
 12.1727321759562379  5.2857553136263355  1.0794398548119186   T   T   T
  1.2904076535071016 11.1759438302925034  1.0468853372346145   T   T   T
  6.7315699147316765 11.1759438302925034  1.0631625960232678   T   T   T
 12.1727321759562379 11.1759438302925034  1.0794398548119184   T   T   T
 -1.1143108820911436  5.2857553136263355  5.9456386283563889   T   T   T
  4.3268513791334220  5.2857553136263355  5.9619158871450422   T   T   T
  9.7680136403579958  5.2857553136263355  5.9781931459336910   T   T   T
 -1.1143108820911436 11.1759438302925034  5.9456386283563889   T   T   T
  4.3268513791334220 11.1759438302925034  5.9619158871450422   T   T   T
  9.7680136403579958 11.1759438302925034  5.9781931459336910   T   T   T
 -3.5190294176893890  5.2857553136263355 10.8443919194781628   T   T   T
  1.9221328435351659  5.2857553136263355 10.8606691782668179   T   T   T
  7.3632951047597244  5.2857553136263355 10.8769464370554765   T   T   T
 -3.5190294176893890 11.1759438302925034 10.8443919194781628   T   T   T
  1.9221328435351659 11.1759438302925034 10.8606691782668179   T   T   T
  7.3632951047597244 11.1759438302925034 10.8769464370554765   T   T   T
  4.0356183004745487  5.2994295917902452  0.9049136228506329   T   T   T
  9.4767805616991101  5.2994295917902452  0.9211908816392844   T   T   T
 14.9179428229236528  5.2994295917902452  0.9374681404279342   T   T   T
  4.0356183004745487 11.1896181084564095  0.9049136228506328   T   T   T
  9.4767805616991101 11.1896181084564095  0.9211908816392844   T   T   T
 14.9179428229236528 11.1896181084564095  0.9374681404279342   T   T   T
  1.6308997648763051  5.2994295917902452  5.8036669139724193   T   T   T
  7.0720620261008582  5.2994295917902452  5.8199441727610663   T   T   T
 12.5132242873254178  5.2994295917902452  5.8362214315497152   T   T   T
  1.6308997648763051 11.1896181084564095  5.8036669139724193   T   T   T
  7.0720620261008582 11.1896181084564095  5.8199441727610663   T   T   T
 12.5132242873254178 11.1896181084564095  5.8362214315497152   T   T   T
 -0.7738187707219440  5.2994295917902452 10.7024202050941764   T   T   T
  4.6673434905026161  5.2994295917902452 10.7186974638828598   T   T   T
 10.1085057517271579  5.2994295917902452 10.7349747226715131   T   T   T
 -0.7738187707219440 11.1896181084564095 10.7024202050941764   T   T   T
  4.6673434905026161 11.1896181084564095 10.7186974638828598   T   T   T
 10.1085057517271579 11.1896181084564095 10.7349747226715131   T   T   T
  1.7460357640659920  0.6044332030398194  3.8681458055789970   T   T   T
  7.1871980252905354  0.6044332030398196  3.8844230643676494   T   T   T
 12.6283602865151181  0.6044332030398194  3.9007003231562987   T   T   T
  1.7460357640659920  6.4946217197059841  3.8681458055789979   T   T   T
  7.1871980252905354  6.4946217197059841  3.8844230643676489   T   T   T
 12.6283602865151181  6.4946217197059841  3.9007003231562982   T   T   T
 -0.6586827715322590  0.6044332030398194  8.7668990967007367   T   T   T
  4.7824794896922977  0.6044332030398194  8.7831763554894255   T   T   T
 10.2236417509168369  0.6044332030398194  8.7994536142780788   T   T   T
 -0.6586827715322590  6.4946217197059841  8.7668990967007367   T   T   T
  4.7824794896922977  6.4946217197059841  8.7831763554894255   T   T   T
 10.2236417509168369  6.4946217197059841  8.7994536142780788   T   T   T
 -3.0634013071305084  0.6044332030398196 13.6656523878225258   T   T   T
  2.3777609540940512  0.6044332030398196 13.6819296466111915   T   T   T
  7.8189232153186037  0.6044332030398196 13.6982069053998501   T   T   T
 -3.0634013071305084  6.4946217197059841 13.6656523878225258   T   T   T
  2.3777609540940512  6.4946217197059841 13.6819296466111915   T   T   T
  7.8189232153186037  6.4946217197059841 13.6982069053998501   T   T   T
  2.8332590326754268  3.5358531832089892  3.3542902684115217   T   T   T
  8.2744212938999802  3.5358531832089892  3.3705675272001678   T   T   T
 13.7155835551245513  3.5358531832089892  3.3868447859888215   T   T   T
  2.8332590326754268  9.4260416998751317  3.3542902684115217   T   T   T
  8.2744212938999802  9.4260416998751317  3.3705675272001678   T   T   T
 13.7155835551245513  9.4260416998751317  3.3868447859888215   T   T   T
  0.4285404970771811  3.5358531832089892  8.2530435595333085   T   T   T
  5.8697027583017301  3.5358531832089892  8.2693208183219706   T   T   T
 11.3108650195262594  3.5358531832089892  8.2855980771106257   T   T   T
  0.4285404970771811  9.4260416998751317  8.2530435595333085   T   T   T
  5.8697027583017301  9.4260416998751317  8.2693208183219706   T   T   T
 11.3108650195262594  9.4260416998751317  8.2855980771106257   T   T   T
 -1.9761780385210657  3.5358531832089892 13.1517968506550620   T   T   T
  3.4649842227034942  3.5358531832089892 13.1680741094437366   T   T   T
  8.9061464839280422  3.5358531832089892 13.1843513682323952   T   T   T
 -1.9761780385210657  9.4260416998751317 13.1517968506550620   T   T   T
  3.4649842227034942  9.4260416998751317 13.1680741094437366   T   T   T
  8.9061464839280422  9.4260416998751317 13.1843513682323952   T   T   T
  0.2031843848976662  2.3543353334571711  1.5607408744020879   T   T   T
  5.6443466461222256  2.3543353334571711  1.5770181331907371   T   T   T
 11.0855089073467941  2.3543353334571711  1.5932953919793891   T   T   T
  0.2031843848976662  8.2445238501233096  1.5607408744020879   T   T   T
  5.6443466461222256  8.2445238501233096  1.5770181331907371   T   T   T
 11.0855089073467941  8.2445238501233096  1.5932953919793891   T   T   T
 -2.2015341507005859  2.3543353334571711  6.4594941655238545   T   T   T
  3.2396281105239737  2.3543353334571711  6.4757714243125175   T   T   T
  8.6807903717485377  2.3543353334571711  6.4920486831011619   T   T   T
 -2.2015341507005859  8.2445238501233096  6.4594941655238545   T   T   T
  3.2396281105239737  8.2445238501233096  6.4757714243125175   T   T   T
  8.6807903717485377  8.2445238501233096  6.4920486831011619   T   T   T
 -4.6062526862988342  2.3543353334571711 11.3582474566456213   T   T   T
  0.8349095749257308  2.3543353334571711 11.3745247154342568   T   T   T
  6.2760718361502814  2.3543353334571711 11.3908019742229207   T   T   T
 -4.6062526862988342  8.2445238501233096 11.3582474566456213   T   T   T
  0.8349095749257308  8.2445238501233096 11.3745247154342568   T   T   T
  6.2760718361502814  8.2445238501233096 11.3908019742229207   T   T   T
  2.9483950318651124  2.3406610552932565  1.4187691600181027   T   T   T
  8.3895572930896645  2.3406610552932565  1.4350464188067542   T   T   T
 13.8307195543142356  2.3406610552932565  1.4513236775954070   T   T   T
  2.9483950318651124  8.2308495719593999  1.4187691600181027   T   T   T
  8.3895572930896645  8.2308495719593999  1.4350464188067542   T   T   T
 13.8307195543142356  8.2308495719593999  1.4513236775954070   T   T   T
  0.5436764962668642  2.3406610552932565  6.3175224511398875   T   T   T
  5.9848387574914224  2.3406610552932565  6.3337997099285328   T   T   T
 11.4260010187159811  2.3406610552932565  6.3500769687171790   T   T   T
  0.5436764962668642  8.2308495719593999  6.3175224511398875   T   T   T
  5.9848387574914224  8.2308495719593999  6.3337997099285319   T   T   T
 11.4260010187159811  8.2308495719593999  6.3500769687171790   T   T   T
 -1.8610420393313818  2.3406610552932565 11.2162757422616419   T   T   T
  3.5801202218931683  2.3406610552932565 11.2325530010503023   T   T   T
  9.0212824831177354  2.3406610552932565 11.2488302598389591   T   T   T
 -1.8610420393313818  8.2308495719593999 11.2162757422616419   T   T   T
  3.5801202218931683  8.2308495719593999 11.2325530010503023   T   T   T
  9.0212824831177354  8.2308495719593999 11.2488302598389591   T   T   T
  0.0880483857079812  3.5495274613729024  3.4962619827954997   T   T   T
  5.5292106469325457  3.5495274613729024  3.5125392415841512   T   T   T
 10.9703729081571080  3.5495274613729024  3.5288165003728058   T   T   T
  0.0880483857079812  9.4397159780390449  3.4962619827954997   T   T   T
  5.5292106469325457  9.4397159780390449  3.5125392415841512   T   T   T
 10.9703729081571080  9.4397159780390449  3.5288165003728058   T   T   T
 -2.3166701498902667  3.5495274613729015  8.3950152739172861   T   T   T
  3.1244921113342916  3.5495274613729024  8.4112925327059411   T   T   T
  8.5656543725588445  3.5495274613729024  8.4275697914945908   T   T   T
 -2.3166701498902667  9.4397159780390449  8.3950152739172861   T   T   T
  3.1244921113342916  9.4397159780390449  8.4112925327059411   T   T   T
  8.5656543725588445  9.4397159780390449  8.4275697914945908   T   T   T
 -4.7213886854885105  3.5495274613729015 13.2937685650390485   T   T   T
  0.7197735757360444  3.5495274613729024 13.3100458238277195   T   T   T
  6.1609358369606051  3.5495274613729024 13.3263230826163745   T   T   T
 -4.7213886854885105  9.4397159780390449 13.2937685650390485   T   T   T
  0.7197735757360444  9.4397159780390449 13.3100458238277195   T   T   T
  6.1609358369606051  9.4397159780390449 13.3263230826163745   T   T   T
