 C  H  O                                
   1.0000000000000000     
    20.0000000000000000    0.0000000000000000    0.0000000000000000
     0.0000000000000000   20.0000000000000000    0.0000000000000000
     0.0000000000000000    0.0000000000000000   20.0000000000000000
   C    H    O 
     2     2     4
Direct
  0.2946091546406819  0.2910290376827405  0.2668024992707316
  0.2579747203593143  0.3320873373172617  0.3218010007292733
  0.2399051862505175  0.2200519190457726  0.2973891135101709
  0.3126786887494717  0.4030644559542367  0.2912143864898127
  0.3370198867136125  0.3155637945763061  0.2312094582549022
  0.2155639882864122  0.3075525804236818  0.3573940417451098
  0.2744728852422469  0.2267998649823681  0.2632168860842299
  0.2781109897577423  0.3963165100176269  0.3253866139157680

  0.00000000E+00  0.00000000E+00  0.00000000E+00
  0.00000000E+00  0.00000000E+00  0.00000000E+00
  0.00000000E+00  0.00000000E+00  0.00000000E+00
  0.00000000E+00  0.00000000E+00  0.00000000E+00
  0.00000000E+00  0.00000000E+00  0.00000000E+00
  0.00000000E+00  0.00000000E+00  0.00000000E+00
  0.00000000E+00  0.00000000E+00  0.00000000E+00
  0.00000000E+00  0.00000000E+00  0.00000000E+00
