 O  C  H 
 1.0000000000000000
    25.0000000000000000    0.0000000000000000    0.0000000000000000
     0.0000000000000000   25.0000000000000000    0.0000000000000000
     0.0000000000000000    0.0000000000000000   25.0000000000000000
 O   C   H  
   4   9   8
Cartesian
 13.5548689022882538 13.6478557815801000 13.4842934908312433
 11.4792588778897677 10.0212560624936007 12.4304403375817962
 13.4897293027025746 10.9223591824003048 12.9706424412203258
 14.2103647852647335 13.4979494495382788 11.2851035097921830
 12.1969086830725963 13.5934384722939807 13.1338122396332420
 11.5576342436895185 12.3782659519865046 12.8012996667787746
 11.4807666615286763 14.7862912954880663 13.1992443876671199
 10.1735699828182948 12.4154895310334084 12.5326060747510990
 10.1113611905026541 14.7960338750021947 12.9321924149753151
  9.4572093209688468 13.6075570828064780 12.5947759164422664
 12.3025655020551916 11.0886459403553577 12.7543535439899518
 14.5052253499068797 13.4914016251718909 12.4538628184218503
 15.8786307525479007 13.3285060333123120 13.0546133842074550
 12.0082395624076259 15.6942432509592056 13.4589745905907314
  9.6691091789291939 11.4968633852933220 12.2750219183209683
  9.5617110209501632 15.7268007011069137 12.9836223083617952
  8.3959518602582257 13.6108253683956590 12.3839045942647275
 16.0383861525351001 14.0433342114327253 13.8621739619376161
 16.6319877113309715 13.4522719246707165 12.2810714307977396
 15.9460796016381927 12.3233877051637872 13.4762756902108300
 12.0576913567075668  9.2361231695339772 12.4150152791989594
