 C  H  O 
 1.0000000000000000
    20.0000000000000000    0.0000000000000000    0.0000000000000000
     0.0000000000000000   20.0000000000000000    0.0000000000000000
     0.0000000000000000    0.0000000000000000   20.0000000000000000
 C   H   O  
   2   2   4
Cartesian
  5.8922547736830548  5.8206486439770426  5.3359978280769873
  5.1594227261552810  6.6416788558974771  6.4360721716619329
  4.7980869630062060  4.4008205846769179  5.9477224964283515
  6.2535905372539968  8.0615069154532151  5.8243475039030272
  6.7405129583224328  6.3112482560816332  4.6240491022088248
  4.3111645413725528  6.1510792441163220  7.1480208976549262
  5.4894679936740216  4.5358499423975891  5.2642603751627455
  5.5622095065324375  7.9264775573998048  6.5078096249032065
