 C  O  H 
 1.0000000000000000
    25.0000000000000000    0.0000000000000000    0.0000000000000000
     0.0000000000000000   25.0000000000000000    0.0000000000000000
     0.0000000000000000    0.0000000000000000   25.0000000000000000
 C   O   H  
   2   2   4
Cartesian
 11.2068300000000001 12.6302599999999998 12.5002999999999993
 12.7095999999999982 12.6177600000000005 12.5012800000000013
 13.4342799999999993 13.5879799999999999 12.5008900000000001
 13.1970099999999988 11.3395000000000010 12.5035699999999999
 10.8501599999999989 13.6605000000000008 12.5000199999999992
 10.8298400000000008 12.1009600000000006 11.6178500000000007
 10.8292099999999998 12.1007600000000011 13.3821499999999993
 14.1707900000000002 11.4191600000000015 12.5007999999999999
