super cell
        1.0000000000
  18.724345629163519   0.000000000000000   0.000000000000000
  -9.362172814581760  16.215758984095707   0.000000000000000
   0.000000000000000  -0.000000000000009  16.310298995271793
  144  288  144
 Direct
   0.068132348949190   0.076740813749175   0.491744862698414
   0.568132348949190   0.076740813749175   0.491744862698414
   0.068132348949190   0.576740813749175   0.491744862698414
   0.568132348949190   0.576740813749175   0.491744862698414
   0.068132348949190   0.076740813749175   0.991744862698414
   0.568132348949190   0.076740813749175   0.991744862698414
   0.068132348949190   0.576740813749175   0.991744862698414
   0.568132348949190   0.576740813749175   0.991744862698414
   0.423261033559058   0.491373128313941   0.491744862698414
   0.923261033559058   0.491373128313941   0.491744862698414
   0.423261033559058   0.991373128313941   0.491744862698414
   0.923261033559058   0.991373128313941   0.491744862698414
   0.423261033559058   0.491373128313941   0.991744862698414
   0.923261033559058   0.491373128313941   0.991744862698414
   0.423261033559058   0.991373128313941   0.991744862698414
   0.923261033559058   0.991373128313941   0.991744862698414
   0.008628719067383   0.431869498484072   0.491744862698414
   0.508628719067383   0.431869498484072   0.491744862698414
   0.008628719067383   0.931869498484073   0.491744862698414
   0.508628719067383   0.931869498484073   0.491744862698414
   0.008628719067383   0.431869498484072   0.991744862698414
   0.508628719067383   0.431869498484072   0.991744862698414
   0.008628719067383   0.931869498484073   0.991744862698414
   0.508628719067383   0.931869498484073   0.991744862698414
   0.423261033796068   0.431869498484072   0.241744863239050
   0.923261033796068   0.431869498484072   0.241744863239050
   0.423261033796068   0.931869498484072   0.241744863239050
   0.923261033796068   0.931869498484072   0.241744863239050
   0.423261033796068   0.431869498484072   0.741744863239050
   0.923261033796068   0.431869498484072   0.741744863239050
   0.423261033796068   0.931869498484072   0.741744863239050
   0.923261033796068   0.931869498484072   0.741744863239050
   0.008628719179364   0.076740813749175   0.241744863239050
   0.508628719179364   0.076740813749175   0.241744863239050
   0.008628719179364   0.576740813749175   0.241744863239050
   0.508628719179364   0.576740813749175   0.241744863239050
   0.008628719179364   0.076740813749175   0.741744863239050
   0.508628719179364   0.076740813749175   0.741744863239050
   0.008628719179364   0.576740813749175   0.741744863239050
   0.508628719179364   0.576740813749175   0.741744863239050
   0.068132349134263   0.491373128313941   0.241744863239050
   0.568132349134263   0.491373128313941   0.241744863239050
   0.068132349134263   0.991373128313941   0.241744863239050
   0.568132349134263   0.991373128313941   0.241744863239050
   0.068132349134263   0.491373128313941   0.741744863239050
   0.568132349134263   0.491373128313941   0.741744863239050
   0.068132349134263   0.991373128313941   0.741744863239050
   0.568132349134263   0.991373128313941   0.741744863239050
   0.401465682200598   0.243407479962623   0.158411529472820
   0.901465682200598   0.243407479962623   0.158411529472820
   0.401465682200598   0.743407479962623   0.158411529472820
   0.901465682200598   0.743407479962623   0.158411529472820
   0.401465682200598   0.243407479962623   0.658411529472820
   0.901465682200598   0.243407479962623   0.658411529472820
   0.401465682200598   0.743407479962623   0.658411529472820
   0.901465682200598   0.743407479962623   0.658411529472820
   0.256594367037268   0.158039795270361   0.158411529472820
   0.756594367037268   0.158039795270361   0.158411529472820
   0.256594367037268   0.658039795270361   0.158411529472820
   0.756594367037268   0.658039795270361   0.158411529472820
   0.256594367037268   0.158039795270361   0.658411529472820
   0.756594367037268   0.158039795270361   0.658411529472820
   0.256594367037268   0.658039795270361   0.658411529472820
   0.756594367037268   0.658039795270361   0.658411529472820
   0.341962051992556   0.098536164823808   0.158411529472820
   0.841962051992556   0.098536164823808   0.158411529472820
   0.341962051992556   0.598536164823808   0.158411529472820
   0.841962051992556   0.598536164823808   0.158411529472820
   0.341962051992556   0.098536164823808   0.658411529472820
   0.841962051992556   0.098536164823808   0.658411529472820
   0.341962051992556   0.598536164823808   0.658411529472820
   0.841962051992556   0.598536164823808   0.658411529472820
   0.256594366965936   0.098536164823808   0.408411529545293
   0.756594366965936   0.098536164823808   0.408411529545293
   0.256594366965936   0.598536164823808   0.408411529545293
   0.756594366965936   0.598536164823808   0.408411529545293
   0.256594366965936   0.098536164823808   0.908411529545293
   0.756594366965936   0.098536164823808   0.908411529545293
   0.256594366965936   0.598536164823808   0.908411529545293
   0.756594366965936   0.598536164823808   0.908411529545293
   0.341962052430773   0.243407479962623   0.408411529545293
   0.841962052430773   0.243407479962623   0.408411529545293
   0.341962052430773   0.743407479962623   0.408411529545293
   0.841962052430773   0.743407479962623   0.408411529545293
   0.341962052430773   0.243407479962623   0.908411529545293
   0.841962052430773   0.243407479962623   0.908411529545293
   0.341962052430773   0.743407479962623   0.908411529545293
   0.841962052430773   0.743407479962623   0.908411529545293
   0.401465682367777   0.158039795270361   0.408411529545293
   0.901465682367777   0.158039795270361   0.408411529545293
   0.401465682367777   0.658039795270361   0.408411529545293
   0.901465682367777   0.658039795270361   0.408411529545293
   0.401465682367777   0.158039795270361   0.908411529545293
   0.901465682367777   0.158039795270361   0.908411529545293
   0.401465682367777   0.658039795270361   0.908411529545293
   0.901465682367777   0.658039795270361   0.908411529545293
   0.234799015470980   0.410074146792755   0.325078196392171
   0.734799015470980   0.410074146792755   0.325078196392171
   0.234799015470980   0.910074146792755   0.325078196392171
   0.734799015470980   0.910074146792755   0.325078196392171
   0.234799015470980   0.410074146792755   0.825078196392171
   0.734799015470980   0.410074146792755   0.825078196392171
   0.234799015470980   0.910074146792755   0.825078196392171
   0.734799015470980   0.910074146792755   0.825078196392171
   0.089927700533371   0.324706461483809   0.325078196392171
   0.589927700533371   0.324706461483809   0.325078196392171
   0.089927700533371   0.824706461483809   0.325078196392171
   0.589927700533371   0.824706461483809   0.325078196392171
   0.089927700533371   0.324706461483809   0.825078196392171
   0.589927700533371   0.324706461483809   0.825078196392171
   0.089927700533371   0.824706461483809   0.825078196392171
   0.589927700533371   0.824706461483809   0.825078196392171
   0.175295385797002   0.265202831653940   0.325078196392171
   0.675295385797002   0.265202831653940   0.325078196392171
   0.175295385797002   0.765202831653940   0.325078196392171
   0.675295385797002   0.765202831653940   0.325078196392171
   0.175295385797002   0.265202831653940   0.825078196392171
   0.675295385797002   0.265202831653940   0.825078196392171
   0.175295385797002   0.765202831653940   0.825078196392171
   0.675295385797002   0.765202831653940   0.825078196392171
   0.089927700236318   0.265202831653940   0.075078196319699
   0.589927700236318   0.265202831653940   0.075078196319699
   0.089927700236318   0.765202831653940   0.075078196319699
   0.589927700236318   0.765202831653940   0.075078196319699
   0.089927700236318   0.265202831653940   0.575078196319699
   0.589927700236318   0.265202831653940   0.575078196319699
   0.089927700236318   0.765202831653940   0.575078196319699
   0.589927700236318   0.765202831653940   0.575078196319699
   0.175295385701154   0.410074146792755   0.075078196319699
   0.675295385701154   0.410074146792755   0.075078196319699
   0.175295385701154   0.910074146792755   0.075078196319699
   0.675295385701154   0.910074146792755   0.075078196319699
   0.175295385701154   0.410074146792755   0.575078196319699
   0.675295385701154   0.410074146792755   0.575078196319699
   0.175295385701154   0.910074146792755   0.575078196319699
   0.675295385701154   0.910074146792755   0.575078196319699
   0.234799015329817   0.324706461483809   0.075078196319699
   0.734799015329817   0.324706461483809   0.075078196319699
   0.234799015329817   0.824706461483809   0.075078196319699
   0.734799015329817   0.824706461483809   0.075078196319699
   0.234799015329817   0.324706461483809   0.575078196319699
   0.734799015329817   0.324706461483809   0.575078196319699
   0.234799015329817   0.824706461483809   0.575078196319699
   0.734799015329817   0.824706461483809   0.575078196319699
   0.069203297670937   0.077865549878880   0.424498899867324
   0.569203297670937   0.077865549878880   0.424498899867324
   0.069203297670937   0.577865549878880   0.424498899867324
   0.569203297670937   0.577865549878880   0.424498899867324
   0.069203297670937   0.077865549878880   0.924498899867324
   0.569203297670937   0.077865549878880   0.924498899867324
   0.069203297670937   0.577865549878880   0.924498899867324
   0.569203297670937   0.577865549878880   0.924498899867324
   0.422136297596484   0.491319341130692   0.424498899867324
   0.922136297596484   0.491319341130692   0.424498899867324
   0.422136297596484   0.991319341130692   0.424498899867324
   0.922136297596484   0.991319341130692   0.424498899867324
   0.422136297596484   0.491319341130692   0.924498899867324
   0.922136297596484   0.491319341130692   0.924498899867324
   0.422136297596484   0.991319341130692   0.924498899867324
   0.922136297596484   0.991319341130692   0.924498899867324
   0.008682506308211   0.430798549537617   0.424498899867324
   0.508682506308211   0.430798549537617   0.424498899867324
   0.008682506308211   0.930798549537617   0.424498899867324
   0.508682506308211   0.930798549537617   0.424498899867324
   0.008682506308211   0.430798549537617   0.924498899867324
   0.508682506308211   0.430798549537617   0.924498899867324
   0.008682506308211   0.930798549537617   0.924498899867324
   0.508682506308211   0.930798549537617   0.924498899867324
   0.422136297608785   0.430798549537616   0.174498899794852
   0.922136297608785   0.430798549537616   0.174498899794852
   0.422136297608785   0.930798549537616   0.174498899794852
   0.922136297608785   0.930798549537616   0.174498899794852
   0.422136297608785   0.430798549537616   0.674498899794852
   0.922136297608785   0.430798549537616   0.674498899794852
   0.422136297608785   0.930798549537616   0.674498899794852
   0.922136297608785   0.930798549537616   0.674498899794852
   0.008682506587322   0.077865549878880   0.174498899794852
   0.508682506587322   0.077865549878880   0.174498899794852
   0.008682506587322   0.577865549878880   0.174498899794852
   0.508682506587322   0.577865549878880   0.174498899794852
   0.008682506587322   0.077865549878880   0.674498899794852
   0.508682506587322   0.077865549878880   0.674498899794852
   0.008682506587322   0.577865549878880   0.674498899794852
   0.508682506587322   0.577865549878880   0.674498899794852
   0.069203297913588   0.491319341130692   0.174498899794852
   0.569203297913588   0.491319341130692   0.174498899794852
   0.069203297913588   0.991319341130692   0.174498899794852
   0.569203297913588   0.991319341130692   0.174498899794852
   0.069203297913588   0.491319341130692   0.674498899794852
   0.569203297913588   0.491319341130692   0.674498899794852
   0.069203297913588   0.991319341130692   0.674498899794852
   0.569203297913588   0.991319341130692   0.674498899794852
   0.402536630922345   0.244532216092328   0.091165566641730
   0.902536630922345   0.244532216092328   0.091165566641730
   0.402536630922345   0.744532216092328   0.091165566641730
   0.902536630922345   0.744532216092328   0.091165566641730
   0.402536630922345   0.244532216092328   0.591165566641730
   0.902536630922345   0.244532216092328   0.591165566641730
   0.402536630922345   0.744532216092328   0.591165566641730
   0.902536630922345   0.744532216092328   0.591165566641730
   0.255469630766351   0.157986007470428   0.091165566641730
   0.755469630766351   0.157986007470428   0.091165566641730
   0.255469630766351   0.657986007470428   0.091165566641730
   0.755469630766351   0.657986007470428   0.091165566641730
   0.255469630766351   0.157986007470428   0.591165566641730
   0.755469630766351   0.157986007470428   0.591165566641730
   0.255469630766351   0.657986007470428   0.591165566641730
   0.755469630766351   0.657986007470428   0.591165566641730
   0.342015840075789   0.097465216494036   0.091165566641730
   0.842015840075789   0.097465216494036   0.091165566641730
   0.342015840075789   0.597465216494036   0.091165566641730
   0.842015840075789   0.597465216494036   0.091165566641730
   0.342015840075789   0.097465216494036   0.591165566641730
   0.842015840075789   0.097465216494036   0.591165566641730
   0.342015840075789   0.597465216494036   0.591165566641730
   0.842015840075789   0.597465216494036   0.591165566641730
   0.255469631086995   0.097465216494036   0.341165566714203
   0.755469631086995   0.097465216494036   0.341165566714203
   0.255469631086995   0.597465216494036   0.341165566714203
   0.755469631086995   0.597465216494036   0.341165566714203
   0.255469631086995   0.097465216494036   0.841165566714203
   0.755469631086995   0.097465216494036   0.841165566714203
   0.255469631086995   0.597465216494036   0.841165566714203
   0.755469631086995   0.597465216494036   0.841165566714203
   0.342015839838731   0.244532216092328   0.341165566714203
   0.842015839838731   0.244532216092328   0.341165566714203
   0.342015839838731   0.744532216092328   0.341165566714203
   0.842015839838731   0.744532216092328   0.341165566714203
   0.342015839838731   0.244532216092328   0.841165566714203
   0.842015839838731   0.244532216092328   0.841165566714203
   0.342015839838731   0.744532216092328   0.841165566714203
   0.842015839838731   0.744532216092328   0.841165566714203
   0.402536630838760   0.157986007470428   0.341165566714203
   0.902536630838760   0.157986007470428   0.341165566714203
   0.402536630838760   0.657986007470428   0.341165566714203
   0.902536630838760   0.657986007470428   0.341165566714203
   0.402536630838760   0.157986007470428   0.841165566714203
   0.902536630838760   0.157986007470428   0.841165566714203
   0.402536630838760   0.657986007470428   0.841165566714203
   0.902536630838760   0.657986007470428   0.841165566714203
   0.235869964192727   0.411198882922460   0.257832233561082
   0.735869964192727   0.411198882922460   0.257832233561082
   0.235869964192727   0.911198882922460   0.257832233561082
   0.735869964192727   0.911198882922460   0.257832233561082
   0.235869964192727   0.411198882922460   0.757832233561082
   0.735869964192727   0.411198882922460   0.757832233561082
   0.235869964192727   0.911198882922460   0.757832233561082
   0.735869964192727   0.911198882922460   0.757832233561082
   0.088802964570797   0.324652674300560   0.257832233561082
   0.588802964570797   0.324652674300560   0.257832233561082
   0.088802964570797   0.824652674300560   0.257832233561082
   0.588802964570797   0.824652674300560   0.257832233561082
   0.088802964570797   0.324652674300560   0.757832233561082
   0.588802964570797   0.324652674300560   0.757832233561082
   0.088802964570797   0.824652674300560   0.757832233561082
   0.588802964570797   0.824652674300560   0.757832233561082
   0.175349173037829   0.264131882707484   0.257832233561082
   0.675349173037829   0.264131882707484   0.257832233561082
   0.175349173037829   0.764131882707484   0.257832233561082
   0.675349173037829   0.764131882707484   0.257832233561082
   0.175349173037829   0.264131882707484   0.757832233561082
   0.675349173037829   0.264131882707484   0.757832233561082
   0.175349173037829   0.764131882707484   0.757832233561082
   0.675349173037829   0.764131882707484   0.757832233561082
   0.088802964049035   0.264131882707484   0.007832233488609
   0.588802964049035   0.264131882707484   0.007832233488609
   0.088802964049035   0.764131882707484   0.007832233488609
   0.588802964049035   0.764131882707484   0.007832233488609
   0.088802964049035   0.264131882707484   0.507832233488609
   0.588802964049035   0.264131882707484   0.507832233488609
   0.088802964049035   0.764131882707484   0.507832233488609
   0.588802964049035   0.764131882707484   0.507832233488609
   0.175349173109112   0.411198882922460   0.007832233488609
   0.675349173109112   0.411198882922460   0.007832233488609
   0.175349173109112   0.911198882922460   0.007832233488609
   0.675349173109112   0.911198882922460   0.007832233488609
   0.175349173109112   0.411198882922460   0.507832233488609
   0.675349173109112   0.411198882922460   0.507832233488609
   0.175349173109112   0.911198882922460   0.507832233488609
   0.675349173109112   0.911198882922460   0.507832233488609
   0.235869964643206   0.324652674300560   0.007832233488609
   0.735869964643206   0.324652674300560   0.007832233488609
   0.235869964643206   0.824652674300560   0.007832233488609
   0.735869964643206   0.824652674300560   0.007832233488609
   0.235869964643206   0.324652674300560   0.507832233488609
   0.735869964643206   0.324652674300560   0.507832233488609
   0.235869964643206   0.824652674300560   0.507832233488609
   0.735869964643206   0.824652674300560   0.507832233488609
   0.117948006937484   0.132715187251534   0.018214230167462
   0.617948006937485   0.132715187251534   0.018214230167462
   0.117948006937484   0.632715187251534   0.018214230167462
   0.617948006937485   0.632715187251534   0.018214230167462
   0.117948006937484   0.132715187251534   0.518214230167462
   0.617948006937485   0.132715187251534   0.518214230167462
   0.117948006937484   0.632715187251534   0.518214230167462
   0.617948006937485   0.632715187251534   0.518214230167462
   0.367286660313747   0.485214412579577   0.018214230167462
   0.867286660313747   0.485214412579577   0.018214230167462
   0.367286660313747   0.985214412579577   0.018214230167462
   0.867286660313747   0.985214412579577   0.018214230167462
   0.367286660313747   0.485214412579577   0.518214230167462
   0.867286660313747   0.485214412579577   0.518214230167462
   0.367286660313747   0.985214412579577   0.518214230167462
   0.867286660313747   0.985214412579577   0.518214230167462
   0.014787434858463   0.382053840716077   0.018214230167462
   0.514787434858463   0.382053840716077   0.018214230167462
   0.014787434858463   0.882053840716077   0.018214230167462
   0.514787434858463   0.882053840716077   0.018214230167462
   0.014787434858463   0.382053840716077   0.518214230167462
   0.514787434858463   0.382053840716077   0.518214230167462
   0.014787434858463   0.882053840716077   0.518214230167462
   0.514787434858463   0.882053840716077   0.518214230167462
   0.367286660236993   0.382053840716078   0.268214230239934
   0.867286660236993   0.382053840716078   0.268214230239934
   0.367286660236993   0.882053840716078   0.268214230239934
   0.867286660236993   0.882053840716078   0.268214230239934
   0.367286660236993   0.382053840716078   0.768214230239934
   0.867286660236993   0.382053840716078   0.768214230239934
   0.367286660236993   0.882053840716078   0.768214230239934
   0.867286660236993   0.882053840716078   0.768214230239934
   0.014787435227492   0.132715187251534   0.268214230239934
   0.514787435227492   0.132715187251534   0.268214230239934
   0.014787435227492   0.632715187251534   0.268214230239934
   0.514787435227492   0.632715187251534   0.268214230239934
   0.014787435227492   0.132715187251534   0.768214230239934
   0.514787435227492   0.132715187251534   0.768214230239934
   0.014787435227492   0.632715187251534   0.768214230239934
   0.514787435227492   0.632715187251534   0.768214230239934
   0.117948006645209   0.485214412579577   0.268214230239934
   0.617948006645209   0.485214412579577   0.268214230239934
   0.117948006645209   0.985214412579577   0.268214230239934
   0.617948006645209   0.985214412579577   0.268214230239934
   0.117948006645209   0.485214412579577   0.768214230239934
   0.617948006645209   0.485214412579577   0.768214230239934
   0.117948006645209   0.985214412579577   0.768214230239934
   0.617948006645209   0.985214412579577   0.768214230239934
   0.451281339963171   0.299381854081666   0.184880897086813
   0.951281339963171   0.299381854081666   0.184880897086813
   0.451281339963171   0.799381854081666   0.184880897086813
   0.951281339963171   0.799381854081666   0.184880897086813
   0.451281339963171   0.299381854081666   0.684880897086813
   0.951281339963171   0.299381854081666   0.684880897086813
   0.451281339963171   0.799381854081666   0.684880897086813
   0.951281339963171   0.799381854081666   0.684880897086813
   0.200619993483615   0.151881078919313   0.184880897086813
   0.700619993483615   0.151881078919313   0.184880897086813
   0.200619993483615   0.651881078919313   0.184880897086813
   0.700619993483615   0.651881078919313   0.184880897086813
   0.200619993483615   0.151881078919313   0.684880897086813
   0.700619993483615   0.151881078919313   0.684880897086813
   0.200619993483615   0.651881078919313   0.684880897086813
   0.700619993483615   0.651881078919313   0.684880897086813
   0.348120768317700   0.048720507055813   0.184880897086813
   0.848120768317700   0.048720507055813   0.184880897086813
   0.348120768317700   0.548720507055813   0.184880897086813
   0.848120768317700   0.548720507055813   0.184880897086813
   0.348120768317700   0.048720507055813   0.684880897086813
   0.848120768317700   0.048720507055813   0.684880897086813
   0.348120768317700   0.548720507055813   0.684880897086813
   0.848120768317700   0.548720507055813   0.684880897086813
   0.200619993406861   0.048720507055813   0.434880897159286
   0.700619993406861   0.048720507055813   0.434880897159286
   0.200619993406861   0.548720507055813   0.434880897159286
   0.700619993406861   0.548720507055813   0.434880897159286
   0.200619993406861   0.048720507055813   0.934880897159286
   0.700619993406861   0.048720507055813   0.934880897159286
   0.200619993406861   0.548720507055813   0.934880897159286
   0.700619993406861   0.548720507055813   0.934880897159286
   0.348120768253179   0.299381854081666   0.434880897159286
   0.848120768253179   0.299381854081666   0.434880897159286
   0.348120768253179   0.799381854081666   0.434880897159286
   0.848120768253179   0.799381854081666   0.434880897159286
   0.348120768253179   0.299381854081666   0.934880897159286
   0.848120768253179   0.299381854081666   0.934880897159286
   0.348120768253179   0.799381854081666   0.934880897159286
   0.848120768253179   0.799381854081666   0.934880897159286
   0.451281340104446   0.151881078919313   0.434880897159286
   0.951281340104446   0.151881078919313   0.434880897159286
   0.451281340104446   0.651881078919313   0.434880897159286
   0.951281340104446   0.651881078919313   0.434880897159286
   0.451281340104446   0.151881078919313   0.934880897159286
   0.951281340104446   0.151881078919313   0.934880897159286
   0.451281340104446   0.651881078919313   0.934880897159286
   0.951281340104446   0.651881078919313   0.934880897159286
   0.284614673459275   0.466048520295114   0.351547563393056
   0.784614673459275   0.466048520295114   0.351547563393056
   0.284614673459275   0.966048520295114   0.351547563393056
   0.784614673459275   0.966048520295114   0.351547563393056
   0.284614673459275   0.466048520295114   0.851547563393056
   0.784614673459275   0.466048520295114   0.851547563393056
   0.284614673459275   0.966048520295114   0.851547563393056
   0.784614673459275   0.966048520295114   0.851547563393056
   0.033953326753997   0.318547745749445   0.351547563393056
   0.533953326753997   0.318547745749445   0.351547563393056
   0.033953326753997   0.818547745749445   0.351547563393056
   0.533953326753997   0.818547745749445   0.351547563393056
   0.033953326753997   0.318547745749445   0.851547563393056
   0.533953326753997   0.318547745749445   0.851547563393056
   0.033953326753997   0.818547745749445   0.851547563393056
   0.533953326753997   0.818547745749445   0.851547563393056
   0.181454101588082   0.215387173885945   0.351547563393056
   0.681454101588082   0.215387173885945   0.351547563393056
   0.181454101588082   0.715387173885945   0.351547563393056
   0.681454101588082   0.715387173885945   0.351547563393056
   0.181454101588082   0.215387173885945   0.851547563393056
   0.681454101588082   0.215387173885945   0.851547563393056
   0.181454101588082   0.715387173885945   0.851547563393056
   0.681454101588082   0.715387173885945   0.851547563393056
   0.033953326677243   0.215387173885945   0.101547563320583
   0.533953326677243   0.215387173885945   0.101547563320583
   0.033953326677243   0.715387173885945   0.101547563320583
   0.533953326677243   0.715387173885945   0.101547563320583
   0.033953326677243   0.215387173885945   0.601547563320583
   0.533953326677243   0.215387173885945   0.601547563320583
   0.033953326677243   0.715387173885945   0.601547563320583
   0.533953326677243   0.715387173885945   0.601547563320583
   0.181454101749282   0.466048520295114   0.101547563320583
   0.681454101749282   0.466048520295114   0.101547563320583
   0.181454101749282   0.966048520295114   0.101547563320583
   0.681454101749282   0.966048520295114   0.101547563320583
   0.181454101749282   0.466048520295114   0.601547563320583
   0.681454101749282   0.466048520295114   0.601547563320583
   0.181454101749282   0.966048520295114   0.601547563320583
   0.681454101749282   0.966048520295114   0.601547563320583
   0.284614673374828   0.318547745749445   0.101547563320583
   0.784614673374828   0.318547745749445   0.101547563320583
   0.284614673374828   0.818547745749445   0.101547563320583
   0.784614673374828   0.818547745749445   0.101547563320583
   0.284614673374828   0.318547745749445   0.601547563320583
   0.784614673374828   0.318547745749445   0.601547563320583
   0.284614673374828   0.818547745749445   0.601547563320583
   0.784614673374828   0.818547745749445   0.601547563320583
   0.077082142545709   0.008610038551815   0.020728840721927
   0.577082142545709   0.008610038551815   0.020728840721927
   0.077082142545709   0.508610038551815   0.020728840721927
   0.577082142545709   0.508610038551815   0.020728840721927
   0.077082142545709   0.008610038551815   0.520728840721927
   0.577082142545709   0.008610038551815   0.520728840721927
   0.077082142545709   0.508610038551815   0.520728840721927
   0.577082142545709   0.508610038551815   0.520728840721927
   0.491391808937503   0.068453696869120   0.020728840721927
   0.991391808937503   0.068453696869120   0.020728840721927
   0.491391808937503   0.568453696869120   0.020728840721927
   0.991391808937503   0.568453696869120   0.020728840721927
   0.491391808937503   0.068453696869120   0.520728840721927
   0.991391808937503   0.068453696869120   0.520728840721927
   0.491391808937503   0.568453696869120   0.520728840721927
   0.991391808937503   0.568453696869120   0.520728840721927
   0.431548150589616   0.422919705252541   0.020728840721927
   0.931548150589616   0.422919705252541   0.020728840721927
   0.431548150589616   0.922919705252541   0.020728840721927
   0.931548150589616   0.922919705252541   0.020728840721927
   0.431548150589616   0.422919705252541   0.520728840721927
   0.931548150589616   0.422919705252541   0.520728840721927
   0.431548150589616   0.922919705252541   0.520728840721927
   0.931548150589616   0.922919705252541   0.520728840721927
   0.491391808797609   0.422919705252541   0.270728840794400
   0.991391808797609   0.422919705252541   0.270728840794400
   0.491391808797609   0.922919705252541   0.270728840794400
   0.991391808797609   0.922919705252541   0.270728840794400
   0.491391808797609   0.422919705252541   0.770728840794400
   0.991391808797609   0.422919705252541   0.770728840794400
   0.491391808797609   0.922919705252541   0.770728840794400
   0.991391808797609   0.922919705252541   0.770728840794400
   0.431548150674854   0.008610038551815   0.270728840794400
   0.931548150674854   0.008610038551815   0.270728840794400
   0.431548150674854   0.508610038551815   0.270728840794400
   0.931548150674854   0.508610038551815   0.270728840794400
   0.431548150674854   0.008610038551815   0.770728840794400
   0.931548150674854   0.008610038551815   0.770728840794400
   0.431548150674854   0.508610038551815   0.770728840794400
   0.931548150674854   0.508610038551815   0.770728840794400
   0.077082142600365   0.068453696869120   0.270728840794400
   0.577082142600365   0.068453696869120   0.270728840794400
   0.077082142600365   0.568453696869120   0.270728840794400
   0.577082142600365   0.568453696869120   0.270728840794400
   0.077082142600365   0.068453696869120   0.770728840794400
   0.577082142600365   0.068453696869120   0.770728840794400
   0.077082142600365   0.568453696869120   0.770728840794400
   0.577082142600365   0.568453696869120   0.770728840794400
   0.410415475571395   0.175276705381947   0.187395507028169
   0.910415475571395   0.175276705381947   0.187395507028169
   0.410415475571395   0.675276705381947   0.187395507028169
   0.910415475571395   0.675276705381947   0.187395507028169
   0.410415475571395   0.175276705381947   0.687395507028169
   0.910415475571395   0.175276705381947   0.687395507028169
   0.410415475571395   0.675276705381947   0.687395507028169