 N  H 
        1.0000000000
  20.521999999999998   0.000000000000000   0.000000000000000
   0.000000000000000  20.521999999999998   0.000000000000000
   0.000000000000000   0.000000000000000  20.521999999999998
  256  768
 Direct
   0.052527261124288   0.052527114971560   0.052526798706258
   0.302527261124288   0.052527114971560   0.052526798706258
   0.552527261124288   0.052527114971560   0.052526798706258
   0.802527261124288   0.052527114971560   0.052526798706258
   0.052527261124288   0.302527114971560   0.052526798706258
   0.302527261124288   0.302527114971560   0.052526798706258
   0.552527261124288   0.302527114971560   0.052526798706258
   0.802527261124288   0.302527114971560   0.052526798706258
   0.052527261124288   0.552527114971560   0.052526798706258
   0.302527261124288   0.552527114971560   0.052526798706258
   0.552527261124288   0.552527114971560   0.052526798706258
   0.802527261124288   0.552527114971560   0.052526798706258
   0.052527261124288   0.802527114971560   0.052526798706258
   0.302527261124288   0.802527114971560   0.052526798706258
   0.552527261124288   0.802527114971560   0.052526798706258
   0.802527261124288   0.802527114971560   0.052526798706258
   0.052527261124288   0.052527114971560   0.302526798706258
   0.302527261124288   0.052527114971560   0.302526798706258
   0.552527261124288   0.052527114971560   0.302526798706258
   0.802527261124288   0.052527114971560   0.302526798706258
   0.052527261124288   0.302527114971560   0.302526798706258
   0.302527261124288   0.302527114971560   0.302526798706258
   0.552527261124288   0.302527114971560   0.302526798706258
   0.802527261124288   0.302527114971560   0.302526798706258
   0.052527261124288   0.552527114971560   0.302526798706258
   0.302527261124288   0.552527114971560   0.302526798706258
   0.552527261124288   0.552527114971560   0.302526798706258
   0.802527261124288   0.552527114971560   0.302526798706258
   0.052527261124288   0.802527114971560   0.302526798706258
   0.302527261124288   0.802527114971560   0.302526798706258
   0.552527261124288   0.802527114971560   0.302526798706258
   0.802527261124288   0.802527114971560   0.302526798706258
   0.052527261124288   0.052527114971560   0.552526798706258
   0.302527261124288   0.052527114971560   0.552526798706258
   0.552527261124288   0.052527114971560   0.552526798706258
   0.802527261124288   0.052527114971560   0.552526798706258
   0.052527261124288   0.302527114971560   0.552526798706258
   0.302527261124288   0.302527114971560   0.552526798706258
   0.552527261124288   0.302527114971560   0.552526798706258
   0.802527261124288   0.302527114971560   0.552526798706258
   0.052527261124288   0.552527114971560   0.552526798706258
   0.302527261124288   0.552527114971560   0.552526798706258
   0.552527261124288   0.552527114971560   0.552526798706258
   0.802527261124288   0.552527114971560   0.552526798706258
   0.052527261124288   0.802527114971560   0.552526798706258
   0.302527261124288   0.802527114971560   0.552526798706258
   0.552527261124288   0.802527114971560   0.552526798706258
   0.802527261124288   0.802527114971560   0.552526798706258
   0.052527261124288   0.052527114971560   0.802526798706258
   0.302527261124288   0.052527114971560   0.802526798706258
   0.552527261124288   0.052527114971560   0.802526798706258
   0.802527261124288   0.052527114971560   0.802526798706258
   0.052527261124288   0.302527114971560   0.802526798706258
   0.302527261124288   0.302527114971560   0.802526798706258
   0.552527261124288   0.302527114971560   0.802526798706258
   0.802527261124288   0.302527114971560   0.802526798706258
   0.052527261124288   0.552527114971560   0.802526798706258
   0.302527261124288   0.552527114971560   0.802526798706258
   0.552527261124288   0.552527114971560   0.802526798706258
   0.802527261124288   0.552527114971560   0.802526798706258
   0.052527261124288   0.802527114971560   0.802526798706258
   0.302527261124288   0.802527114971560   0.802526798706258
   0.552527261124288   0.802527114971560   0.802526798706258
   0.802527261124288   0.802527114971560   0.802526798706258
   0.177527244956148   0.072473094272161   0.197473068440616
   0.427527244956148   0.072473094272161   0.197473068440616
   0.677527244956148   0.072473094272161   0.197473068440616
   0.927527244956148   0.072473094272161   0.197473068440616
   0.177527244956148   0.322473094272161   0.197473068440616
   0.427527244956148   0.322473094272161   0.197473068440616
   0.677527244956148   0.322473094272161   0.197473068440616
   0.927527244956148   0.322473094272161   0.197473068440616
   0.177527244956148   0.572473094272161   0.197473068440616
   0.427527244956148   0.572473094272161   0.197473068440616
   0.677527244956148   0.572473094272161   0.197473068440616
   0.927527244956148   0.572473094272161   0.197473068440616
   0.177527244956148   0.822473094272161   0.197473068440616
   0.427527244956148   0.822473094272161   0.197473068440616
   0.677527244956148   0.822473094272161   0.197473068440616
   0.927527244956148   0.822473094272161   0.197473068440616
   0.177527244956148   0.072473094272161   0.447473068440616
   0.427527244956148   0.072473094272161   0.447473068440616
   0.677527244956148   0.072473094272161   0.447473068440616
   0.927527244956148   0.072473094272161   0.447473068440616
   0.177527244956148   0.322473094272161   0.447473068440616
   0.427527244956148   0.322473094272161   0.447473068440616
   0.677527244956148   0.322473094272161   0.447473068440616
   0.927527244956148   0.322473094272161   0.447473068440616
   0.177527244956148   0.572473094272161   0.447473068440616
   0.427527244956148   0.572473094272161   0.447473068440616
   0.677527244956148   0.572473094272161   0.447473068440616
   0.927527244956148   0.572473094272161   0.447473068440616
   0.177527244956148   0.822473094272161   0.447473068440616
   0.427527244956148   0.822473094272161   0.447473068440616
   0.677527244956148   0.822473094272161   0.447473068440616
   0.927527244956148   0.822473094272161   0.447473068440616
   0.177527244956148   0.072473094272161   0.697473068440616
   0.427527244956148   0.072473094272161   0.697473068440616
   0.677527244956148   0.072473094272161   0.697473068440616
   0.927527244956148   0.072473094272161   0.697473068440616
   0.177527244956148   0.322473094272161   0.697473068440616
   0.427527244956148   0.322473094272161   0.697473068440616
   0.677527244956148   0.322473094272161   0.697473068440616
   0.927527244956148   0.322473094272161   0.697473068440616
   0.177527244956148   0.572473094272161   0.697473068440616
   0.427527244956148   0.572473094272161   0.697473068440616
   0.677527244956148   0.572473094272161   0.697473068440616
   0.927527244956148   0.572473094272161   0.697473068440616
   0.177527244956148   0.822473094272161   0.697473068440616
   0.427527244956148   0.822473094272161   0.697473068440616
   0.677527244956148   0.822473094272161   0.697473068440616
   0.927527244956148   0.822473094272161   0.697473068440616
   0.177527244956148   0.072473094272161   0.947473068440616
   0.427527244956148   0.072473094272161   0.947473068440616
   0.677527244956148   0.072473094272161   0.947473068440616
   0.927527244956148   0.072473094272161   0.947473068440616
   0.177527244956148   0.322473094272161   0.947473068440616
   0.427527244956148   0.322473094272161   0.947473068440616
   0.677527244956148   0.322473094272161   0.947473068440616
   0.927527244956148   0.322473094272161   0.947473068440616
   0.177527244956148   0.572473094272161   0.947473068440616
   0.427527244956148   0.572473094272161   0.947473068440616
   0.677527244956148   0.572473094272161   0.947473068440616
   0.927527244956148   0.572473094272161   0.947473068440616
   0.177527244956148   0.822473094272161   0.947473068440616
   0.427527244956148   0.822473094272161   0.947473068440616
   0.677527244956148   0.822473094272161   0.947473068440616
   0.927527244956148   0.822473094272161   0.947473068440616
   0.197473053095673   0.177526985909931   0.072473165809276
   0.447473053095673   0.177526985909931   0.072473165809276
   0.697473053095673   0.177526985909931   0.072473165809276
   0.947473053095673   0.177526985909931   0.072473165809276
   0.197473053095673   0.427526985909931   0.072473165809276
   0.447473053095673   0.427526985909931   0.072473165809276
   0.697473053095673   0.427526985909931   0.072473165809276
   0.947473053095673   0.427526985909931   0.072473165809276
   0.197473053095673   0.677526985909931   0.072473165809276
   0.447473053095673   0.677526985909931   0.072473165809276
   0.697473053095673   0.677526985909931   0.072473165809276
   0.947473053095673   0.677526985909931   0.072473165809276
   0.197473053095673   0.927526985909931   0.072473165809276
   0.447473053095673   0.927526985909931   0.072473165809276
   0.697473053095673   0.927526985909931   0.072473165809276
   0.947473053095673   0.927526985909931   0.072473165809276
   0.197473053095673   0.177526985909931   0.322473165809276
   0.447473053095673   0.177526985909931   0.322473165809276
   0.697473053095673   0.177526985909931   0.322473165809276
   0.947473053095673   0.177526985909931   0.322473165809276
   0.197473053095673   0.427526985909931   0.322473165809276
   0.447473053095673   0.427526985909931   0.322473165809276
   0.697473053095673   0.427526985909931   0.322473165809276
   0.947473053095673   0.427526985909931   0.322473165809276
   0.197473053095673   0.677526985909931   0.322473165809276
   0.447473053095673   0.677526985909931   0.322473165809276
   0.697473053095673   0.677526985909931   0.322473165809276
   0.947473053095673   0.677526985909931   0.322473165809276
   0.197473053095673   0.927526985909931   0.322473165809276
   0.447473053095673   0.927526985909931   0.322473165809276
   0.697473053095673   0.927526985909931   0.322473165809276
   0.947473053095673   0.927526985909931   0.322473165809276
   0.197473053095673   0.177526985909931   0.572473165809276
   0.447473053095673   0.177526985909931   0.572473165809276
   0.697473053095673   0.177526985909931   0.572473165809276
   0.947473053095673   0.177526985909931   0.572473165809276
   0.197473053095673   0.427526985909931   0.572473165809276
   0.447473053095673   0.427526985909931   0.572473165809276
   0.697473053095673   0.427526985909931   0.572473165809276
   0.947473053095673   0.427526985909931   0.572473165809276
   0.197473053095673   0.677526985909931   0.572473165809276
   0.447473053095673   0.677526985909931   0.572473165809276
   0.697473053095673   0.677526985909931   0.572473165809276
   0.947473053095673   0.677526985909931   0.572473165809276
   0.197473053095673   0.927526985909931   0.572473165809276
   0.447473053095673   0.927526985909931   0.572473165809276
   0.697473053095673   0.927526985909931   0.572473165809276
   0.947473053095673   0.927526985909931   0.572473165809276
   0.197473053095673   0.177526985909931   0.822473165809276
   0.447473053095673   0.177526985909931   0.822473165809276
   0.697473053095673   0.177526985909931   0.822473165809276
   0.947473053095673   0.177526985909931   0.822473165809276
   0.197473053095673   0.427526985909931   0.822473165809276
   0.447473053095673   0.427526985909931   0.822473165809276
   0.697473053095673   0.427526985909931   0.822473165809276
   0.947473053095673   0.427526985909931   0.822473165809276
   0.197473053095673   0.677526985909931   0.822473165809276
   0.447473053095673   0.677526985909931   0.822473165809276
   0.697473053095673   0.677526985909931   0.822473165809276
   0.947473053095673   0.677526985909931   0.822473165809276
   0.197473053095673   0.927526985909931   0.822473165809276
   0.447473053095673   0.927526985909931   0.822473165809276
   0.697473053095673   0.927526985909931   0.822473165809276
   0.947473053095673   0.927526985909931   0.822473165809276
   0.072473111931288   0.197473158710645   0.177526887682357
   0.322473111931288   0.197473158710645   0.177526887682357
   0.572473111931288   0.197473158710645   0.177526887682357
   0.822473111931288   0.197473158710645   0.177526887682357
   0.072473111931288   0.447473158710645   0.177526887682357
   0.322473111931288   0.447473158710645   0.177526887682357
   0.572473111931288   0.447473158710645   0.177526887682357
   0.822473111931288   0.447473158710645   0.177526887682357
   0.072473111931288   0.697473158710645   0.177526887682357
   0.322473111931288   0.697473158710645   0.177526887682357
   0.572473111931288   0.697473158710645   0.177526887682357
   0.822473111931288   0.697473158710645   0.177526887682357
   0.072473111931288   0.947473158710645   0.177526887682357
   0.322473111931288   0.947473158710645   0.177526887682357
   0.572473111931288   0.947473158710645   0.177526887682357
   0.822473111931288   0.947473158710645   0.177526887682357
   0.072473111931288   0.197473158710645   0.427526887682357
   0.322473111931288   0.197473158710645   0.427526887682357
   0.572473111931288   0.197473158710645   0.427526887682357
   0.822473111931288   0.197473158710645   0.427526887682357
   0.072473111931288   0.447473158710645   0.427526887682357
   0.322473111931288   0.447473158710645   0.427526887682357
   0.572473111931288   0.447473158710645   0.427526887682357
   0.822473111931288   0.447473158710645   0.427526887682357
   0.072473111931288   0.697473158710645   0.427526887682357
   0.322473111931288   0.697473158710645   0.427526887682357
   0.572473111931288   0.697473158710645   0.427526887682357
   0.822473111931288   0.697473158710645   0.427526887682357
   0.072473111931288   0.947473158710645   0.427526887682357
   0.322473111931288   0.947473158710645   0.427526887682357
   0.572473111931288   0.947473158710645   0.427526887682357
   0.822473111931288   0.947473158710645   0.427526887682357
   0.072473111931288   0.197473158710645   0.677526887682357
   0.322473111931288   0.197473158710645   0.677526887682357
   0.572473111931288   0.197473158710645   0.677526887682357
   0.822473111931288   0.197473158710645   0.677526887682357
   0.072473111931288   0.447473158710645   0.677526887682357
   0.322473111931288   0.447473158710645   0.677526887682357
   0.572473111931288   0.447473158710645   0.677526887682357
   0.822473111931288   0.447473158710645   0.677526887682357
   0.072473111931288   0.697473158710645   0.677526887682357
   0.322473111931288   0.697473158710645   0.677526887682357
   0.572473111931288   0.697473158710645   0.677526887682357
   0.822473111931288   0.697473158710645   0.677526887682357
   0.072473111931288   0.947473158710645   0.677526887682357
   0.322473111931288   0.947473158710645   0.677526887682357
   0.572473111931288   0.947473158710645   0.677526887682357
   0.822473111931288   0.947473158710645   0.677526887682357
   0.072473111931288   0.197473158710645   0.927526887682357
   0.322473111931288   0.197473158710645   0.927526887682357
   0.572473111931288   0.197473158710645   0.927526887682357
   0.822473111931288   0.197473158710645   0.927526887682357
   0.072473111931288   0.447473158710645   0.927526887682357
   0.322473111931288   0.447473158710645   0.927526887682357
   0.572473111931288   0.447473158710645   0.927526887682357
   0.822473111931288   0.447473158710645   0.927526887682357
   0.072473111931288   0.697473158710645   0.927526887682357
   0.322473111931288   0.697473158710645   0.927526887682357
   0.572473111931288   0.697473158710645   0.927526887682357
   0.822473111931288   0.697473158710645   0.927526887682357
   0.072473111931288   0.947473158710645   0.927526887682357
   0.322473111931288   0.947473158710645   0.927526887682357
   0.572473111931288   0.947473158710645   0.927526887682357
   0.822473111931288   0.947473158710645   0.927526887682357
   0.092909723227662   0.068153106457565   0.027942732842904
   0.342909723227662   0.068153106457565   0.027942732842904
   0.592909723227662   0.068153106457565   0.027942732842904
   0.842909723227662   0.068153106457565   0.027942732842904
   0.092909723227662   0.318153106457565   0.027942732842904
   0.342909723227662   0.318153106457565   0.027942732842904
   0.592909723227662   0.318153106457565   0.027942732842904
   0.842909723227662   0.318153106457565   0.027942732842904
   0.092909723227662   0.568153106457565   0.027942732842904
   0.342909723227662   0.568153106457565   0.027942732842904
   0.592909723227662   0.568153106457565   0.027942732842904
   0.842909723227662   0.568153106457565   0.027942732842904
   0.092909723227662   0.818153106457565   0.027942732842904
   0.342909723227662   0.818153106457565   0.027942732842904
   0.592909723227662   0.818153106457565   0.027942732842904
   0.842909723227662   0.818153106457565   0.027942732842904
   0.092909723227662   0.068153106457565   0.277942732842904
   0.342909723227662   0.068153106457565   0.277942732842904
   0.592909723227662   0.068153106457565   0.277942732842904
   0.842909723227662   0.068153106457565   0.277942732842904
   0.092909723227662   0.318153106457565   0.277942732842904
   0.342909723227662   0.318153106457565   0.277942732842904
   0.592909723227662   0.318153106457565   0.277942732842904
   0.842909723227662   0.318153106457565   0.277942732842904
   0.092909723227662   0.568153106457565   0.277942732842904
   0.342909723227662   0.568153106457565   0.277942732842904
   0.592909723227662   0.568153106457565   0.277942732842904
   0.842909723227662   0.568153106457565   0.277942732842904
   0.092909723227662   0.818153106457565   0.277942732842904
   0.342909723227662   0.818153106457565   0.277942732842904
   0.592909723227662   0.818153106457565   0.277942732842904
   0.842909723227662   0.818153106457565   0.277942732842904
   0.092909723227662   0.068153106457565   0.527942732842904
   0.342909723227662   0.068153106457565   0.527942732842904
   0.592909723227662   0.068153106457565   0.527942732842904
   0.842909723227662   0.068153106457565   0.527942732842904
   0.092909723227662   0.318153106457565   0.527942732842904
   0.342909723227662   0.318153106457565   0.527942732842904
   0.592909723227662   0.318153106457565   0.527942732842904
   0.842909723227662   0.318153106457565   0.527942732842904
   0.092909723227662   0.568153106457565   0.527942732842904
   0.342909723227662   0.568153106457565   0.527942732842904
   0.592909723227662   0.568153106457565   0.527942732842904
   0.842909723227662   0.568153106457565   0.527942732842904
   0.092909723227662   0.818153106457565   0.527942732842904
   0.342909723227662   0.818153106457565   0.527942732842904
   0.592909723227662   0.818153106457565   0.527942732842904
   0.842909723227662   0.818153106457565   0.527942732842904
   0.092909723227662   0.068153106457565   0.777942732842904
   0.342909723227662   0.068153106457565   0.777942732842904
   0.592909723227662   0.068153106457565   0.777942732842904
   0.842909723227662   0.068153106457565   0.777942732842904
   0.092909723227662   0.318153106457565   0.777942732842904
   0.342909723227662   0.318153106457565   0.777942732842904
   0.592909723227662   0.318153106457565   0.777942732842904
   0.842909723227662   0.318153106457565   0.777942732842904
   0.092909723227662   0.568153106457565   0.777942732842904
   0.342909723227662   0.568153106457565   0.777942732842904
   0.592909723227662   0.568153106457565   0.777942732842904
   0.842909723227662   0.568153106457565   0.777942732842904
   0.092909723227662   0.818153106457565   0.777942732842904
   0.342909723227662   0.818153106457565   0.777942732842904
   0.592909723227662   0.818153106457565   0.777942732842904
   0.842909723227662   0.818153106457565   0.777942732842904
   0.068153531697911   0.027943267875735   0.092909287797050
   0.318153531697911   0.027943267875735   0.092909287797050
   0.568153531697911   0.027943267875735   0.092909287797050
   0.818153531697911   0.027943267875735   0.092909287797050
   0.068153531697911   0.277943267875735   0.092909287797050
   0.318153531697911   0.277943267875735   0.092909287797050
   0.568153531697911   0.277943267875735   0.092909287797050
   0.818153531697911   0.277943267875735   0.092909287797050
   0.068153531697911   0.527943267875735   0.092909287797050
   0.318153531697911   0.527943267875735   0.092909287797050
   0.568153531697911   0.527943267875735   0.092909287797050
   0.818153531697911   0.527943267875735   0.092909287797050
   0.068153531697911   0.777943267875735   0.092909287797050
   0.318153531697911   0.777943267875735   0.092909287797050
   0.568153531697911   0.777943267875735   0.092909287797050
   0.818153531697911   0.777943267875735   0.092909287797050
   0.068153531697911   0.027943267875735   0.342909287797050
   0.318153531697911   0.027943267875735   0.342909287797050
   0.568153531697911   0.027943267875735   0.342909287797050
   0.818153531697911   0.027943267875735   0.342909287797050
   0.068153531697911   0.277943267875735   0.342909287797050
   0.318153531697911   0.277943267875735   0.342909287797050
   0.568153531697911   0.277943267875735   0.342909287797050
   0.818153531697911   0.277943267875735   0.342909287797050
   0.068153531697911   0.527943267875735   0.342909287797050
   0.318153531697911   0.527943267875735   0.342909287797050
   0.568153531697911   0.527943267875735   0.342909287797050
   0.818153531697911   0.527943267875735   0.342909287797050
   0.068153531697911   0.777943267875735   0.342909287797050
   0.318153531697911   0.777943267875735   0.342909287797050
   0.568153531697911   0.777943267875735   0.342909287797050
   0.818153531697911   0.777943267875735   0.342909287797050
   0.068153531697911   0.027943267875735   0.592909287797050
   0.318153531697911   0.027943267875735   0.592909287797050
   0.568153531697911   0.027943267875735   0.592909287797050
   0.818153531697911   0.027943267875735   0.592909287797050
   0.068153531697911   0.277943267875735   0.592909287797050
   0.318153531697911   0.277943267875735   0.592909287797050
   0.568153531697911   0.277943267875735   0.592909287797050
   0.818153531697911   0.277943267875735   0.592909287797050
   0.068153531697911   0.527943267875735   0.592909287797050
   0.318153531697911   0.527943267875735   0.592909287797050
   0.568153531697911   0.527943267875735   0.592909287797050
   0.818153531697911   0.527943267875735   0.592909287797050
   0.068153531697911   0.777943267875735   0.592909287797050
   0.318153531697911   0.777943267875735   0.592909287797050
   0.568153531697911   0.777943267875735   0.592909287797050
   0.818153531697911   0.777943267875735   0.592909287797050
   0.068153531697911   0.027943267875735   0.842909287797050
   0.318153531697911   0.027943267875735   0.842909287797050
   0.568153531697911   0.027943267875735   0.842909287797050
   0.818153531697911   0.027943267875735   0.842909287797050
   0.068153531697911   0.277943267875735   0.842909287797050
   0.318153531697911   0.277943267875735   0.842909287797050
   0.568153531697911   0.277943267875735   0.842909287797050
   0.818153531697911   0.277943267875735   0.842909287797050
   0.068153531697911   0.527943267875735   0.842909287797050
   0.318153531697911   0.527943267875735   0.842909287797050
   0.568153531697911   0.527943267875735   0.842909287797050
   0.818153531697911   0.527943267875735   0.842909287797050
   0.068153531697911   0.777943267875735   0.842909287797050
   0.318153531697911   0.777943267875735   0.842909287797050
   0.568153531697911   0.777943267875735   0.842909287797050
   0.818153531697911   0.777943267875735   0.842909287797050
   0.027943622120585   0.092909726030731   0.068153065289472
   0.277943622120585   0.092909726030731   0.068153065289472
   0.527943622120585   0.092909726030731   0.068153065289472
   0.777943622120585   0.092909726030731   0.068153065289472
   0.027943622120585   0.342909726030731   0.068153065289472
   0.277943622120585   0.342909726030731   0.068153065289472
   0.527943622120585   0.342909726030731   0.068153065289472
   0.777943622120585   0.342909726030731   0.068153065289472
   0.027943622120585   0.592909726030731   0.068153065289472
   0.277943622120585   0.592909726030731   0.068153065289472
   0.527943622120585   0.592909726030731   0.068153065289472
   0.777943622120585   0.592909726030731   0.068153065289472
   0.027943622120585   0.842909726030731   0.068153065289472
   0.277943622120585   0.842909726030731   0.068153065289472
   0.527943622120585   0.842909726030731   0.068153065289472
   0.777943622120585   0.842909726030731   0.068153065289472
   0.027943622120585   0.092909726030731   0.318153065289472
   0.277943622120585   0.092909726030731   0.318153065289472
   0.527943622120585   0.092909726030731   0.318153065289472
   0.777943622120585   0.092909726030731   0.318153065289472
   0.027943622120585   0.342909726030731   0.318153065289472
   0.277943622120585   0.342909726030731   0.318153065289472
   0.527943622120585   0.342909726030731   0.318153065289472
   0.777943622120585   0.342909726030731   0.318153065289472
   0.027943622120585   0.592909726030731   0.318153065289472
   0.277943622120585   0.592909726030731   0.318153065289472
   0.527943622120585   0.592909726030731   0.318153065289472
   0.777943622120585   0.592909726030731   0.318153065289472
   0.027943622120585   0.842909726030731   0.318153065289472
   0.277943622120585   0.842909726030731   0.318153065289472
   0.527943622120585   0.842909726030731   0.318153065289472
   0.777943622120585   0.842909726030731   0.318153065289472
   0.027943622120585   0.092909726030731   0.568153065289472
   0.277943622120585   0.092909726030731   0.568153065289472
   0.527943622120585   0.092909726030731   0.568153065289472
   0.777943622120585   0.092909726030731   0.568153065289472
   0.027943622120585   0.342909726030731   0.568153065289472
   0.277943622120585   0.342909726030731   0.568153065289472
   0.527943622120585   0.342909726030731   0.568153065289472
   0.777943622120585   0.342909726030731   0.568153065289472
   0.027943622120585   0.592909726030731   0.568153065289472
   0.277943622120585   0.592909726030731   0.568153065289472
   0.527943622120585   0.592909726030731   0.568153065289472
   0.777943622120585   0.592909726030731   0.568153065289472
   0.027943622120585   0.842909726030731   0.568153065289472
   0.277943622120585   0.842909726030731   0.568153065289472
   0.527943622120585   0.842909726030731   0.568153065289472
   0.777943622120585   0.842909726030731   0.568153065289472
   0.027943622120585   0.092909726030731   0.818153065289472
   0.277943622120585   0.092909726030731   0.818153065289472
   0.527943622120585   0.092909726030731   0.818153065289472
   0.777943622120585   0.092909726030731   0.818153065289472
   0.027943622120585   0.342909726030731   0.818153065289472
   0.277943622120585   0.342909726030731   0.818153065289472
   0.527943622120585   0.342909726030731   0.818153065289472
   0.777943622120585   0.342909726030731   0.818153065289472
   0.027943622120585   0.592909726030731   0.818153065289472
   0.277943622120585   0.592909726030731   0.818153065289472
   0.527943622120585   0.592909726030731   0.818153065289472
   0.777943622120585   0.592909726030731   0.818153065289472
   0.027943622120585   0.842909726030731   0.818153065289472
   0.277943622120585   0.842909726030731   0.818153065289472
   0.527943622120585   0.842909726030731   0.818153065289472
   0.777943622120585   0.842909726030731   0.818153065289472
   0.217909727829394   0.056847220427303   0.222057188423408
   0.467909727829394   0.056847220427303   0.222057188423408
   0.717909727829394   0.056847220427303   0.222057188423408
   0.967909727829394   0.056847220427303   0.222057188423408
   0.217909727829394   0.306847220427303   0.222057188423408
   0.467909727829394   0.306847220427303   0.222057188423408
   0.717909727829394   0.306847220427303   0.222057188423408
   0.967909727829394   0.306847220427303   0.222057188423408
   0.217909727829394   0.556847220427303   0.222057188423408
   0.467909727829394   0.556847220427303   0.222057188423408
   0.717909727829394   0.556847220427303   0.222057188423408
   0.967909727829394   0.556847220427303   0.222057188423408
   0.217909727829394   0.806847220427303   0.222057188423408
   0.467909727829394   0.806847220427303   0.222057188423408
   0.717909727829394   0.806847220427303   0.222057188423408
   0.967909727829394   0.806847220427303   0.222057188423408
   0.217909727829394   0.056847220427303   0.472057188423408
   0.467909727829394   0.056847220427303   0.472057188423408
   0.717909727829394   0.056847220427303   0.472057188423408
   0.967909727829394   0.056847220427303   0.472057188423408
   0.217909727829394   0.306847220427303   0.472057188423408
   0.467909727829394   0.306847220427303   0.472057188423408
   0.717909727829394   0.306847220427303   0.472057188423408
   0.967909727829394   0.306847220427303   0.472057188423408
   0.217909727829394   0.556847220427303   0.472057188423408
   0.467909727829394   0.556847220427303   0.472057188423408
   0.717909727829394   0.556847220427303   0.472057188423408
   0.967909727829394   0.556847220427303   0.472057188423408
   0.217909727829394   0.806847220427303   0.472057188423408
   0.467909727829394   0.806847220427303   0.472057188423408
   0.717909727829394   0.806847220427303   0.472057188423408
   0.967909727829394   0.806847220427303   0.472057188423408
   0.217909727829394   0.056847220427303   0.722057188423408
   0.467909727829394   0.056847220427303   0.722057188423408
   0.717909727829394   0.056847220427303   0.722057188423408
   0.967909727829394   0.056847220427303   0.722057188423408
   0.217909727829394   0.306847220427303   0.722057188423408
   0.467909727829394   0.306847220427303   0.722057188423408
   0.717909727829394   0.306847220427303   0.722057188423408
   0.967909727829394   0.306847220427303   0.722057188423408