 C  O 
 1.0000000000000000
    16.8158234249950738    0.0000000000000000    0.0000000000000000
     0.0000000000000000   16.8158234249950738    0.0000000000000000
     0.0000000000000000    0.0000000000000000   16.8158234249950738
 C   O  
 108 216
Cartesian
  0.3362479744269133  0.3362479167476790  0.3362479138244516
  5.9415224494252694  0.3362479167476806  0.3362479138244532
 11.5467969244236315  0.3362479167476780  0.3362479138244505
  0.3362479744269153  5.9415223917460356  0.3362479138244536
  5.9415224494252703  5.9415223917460365  0.3362479138244545
 11.5467969244236333  5.9415223917460329  0.3362479138244519
  0.3362479744269167 11.5467968667443905  0.3362479138244550
  5.9415224494252721 11.5467968667443923  0.3362479138244566
 11.5467969244236350 11.5467968667443888  0.3362479138244538
  0.3362479744269121  0.3362479167476777  5.9415223888228184
  5.9415224494252676  0.3362479167476793  5.9415223888228192
 11.5467969244236315  0.3362479167476767  5.9415223888228166
  0.3362479744269140  5.9415223917460338  5.9415223888228192
  5.9415224494252685  5.9415223917460347  5.9415223888228210
 11.5467969244236315  5.9415223917460320  5.9415223888228184
  0.3362479744269152 11.5467968667443870  5.9415223888228210
  5.9415224494252712 11.5467968667443888  5.9415223888228228
 11.5467969244236333 11.5467968667443870  5.9415223888228192
  0.3362479744269137  0.3362479167476793 11.5467968638211733
  5.9415224494252694  0.3362479167476812 11.5467968638211751
 11.5467969244236315  0.3362479167476783 11.5467968638211715
  0.3362479744269151  5.9415223917460347 11.5467968638211751
  5.9415224494252703  5.9415223917460365 11.5467968638211769
 11.5467969244236333  5.9415223917460338 11.5467968638211733
  0.3362479744269168 11.5467968667443905 11.5467968638211751
  5.9415224494252721 11.5467968667443905 11.5467968638211769
 11.5467969244236333 11.5467968667443870 11.5467968638211751
  3.1388851879251423  0.3362479009775060  3.1388851268184070
  8.7441596629234954  0.3362479009775064  3.1388851268184066
 14.3494341379218504  0.3362479009775073  3.1388851268184057
  3.1388851879251436  5.9415223759758611  3.1388851268184057
  8.7441596629234954  5.9415223759758611  3.1388851268184057
 14.3494341379218504  5.9415223759758620  3.1388851268184044
  3.1388851879251449 11.5467968509742160  3.1388851268184048
  8.7441596629234972 11.5467968509742160  3.1388851268184048
 14.3494341379218522 11.5467968509742178  3.1388851268184026
  3.1388851879251427  0.3362479009775063  8.7441596018167598
  8.7441596629234954  0.3362479009775066  8.7441596018167598
 14.3494341379218504  0.3362479009775078  8.7441596018167580
  3.1388851879251436  5.9415223759758611  8.7441596018167580
  8.7441596629234954  5.9415223759758611  8.7441596018167580
 14.3494341379218504  5.9415223759758629  8.7441596018167562
  3.1388851879251449 11.5467968509742160  8.7441596018167562
  8.7441596629234972 11.5467968509742160  8.7441596018167562
 14.3494341379218522 11.5467968509742178  8.7441596018167544
  3.1388851879251418  0.3362479009775051 14.3494340768151147
  8.7441596629234937  0.3362479009775050 14.3494340768151147
 14.3494341379218486  0.3362479009775063 14.3494340768151130
  3.1388851879251427  5.9415223759758602 14.3494340768151147
  8.7441596629234954  5.9415223759758602 14.3494340768151130
 14.3494341379218504  5.9415223759758620 14.3494340768151130
  3.1388851879251440 11.5467968509742160 14.3494340768151130
  8.7441596629234954 11.5467968509742160 14.3494340768151130
 14.3494341379218504 11.5467968509742178 14.3494340768151112
  0.3362479545861119  3.1388851343448496  3.1388851381383569
  5.9415224295844649  3.1388851343448496  3.1388851381383573
 11.5467969045828323  3.1388851343448496  3.1388851381383573
  0.3362479545861131  8.7441596093432157  3.1388851381383582
  5.9415224295844657  8.7441596093432157  3.1388851381383587
 11.5467969045828358  8.7441596093432157  3.1388851381383582
  0.3362479545861122 14.3494340843415706  3.1388851381383578
  5.9415224295844649 14.3494340843415706  3.1388851381383573
 11.5467969045828340 14.3494340843415706  3.1388851381383569
  0.3362479545861107  3.1388851343448509  8.7441596131367234
  5.9415224295844631  3.1388851343448509  8.7441596131367234
 11.5467969045828323  3.1388851343448509  8.7441596131367234
  0.3362479545861122  8.7441596093432175  8.7441596131367270
  5.9415224295844640  8.7441596093432175  8.7441596131367252
 11.5467969045828340  8.7441596093432175  8.7441596131367252
  0.3362479545861106 14.3494340843415724  8.7441596131367252
  5.9415224295844640 14.3494340843415724  8.7441596131367252
 11.5467969045828323 14.3494340843415724  8.7441596131367252
  0.3362479545861119  3.1388851343448496 14.3494340881350784
  5.9415224295844649  3.1388851343448496 14.3494340881350784
 11.5467969045828340  3.1388851343448501 14.3494340881350801
  0.3362479545861130  8.7441596093432157 14.3494340881350801
  5.9415224295844657  8.7441596093432157 14.3494340881350801
 11.5467969045828358  8.7441596093432157 14.3494340881350801
  0.3362479545861122 14.3494340843415706 14.3494340881350784
  5.9415224295844649 14.3494340843415706 14.3494340881350784
 11.5467969045828323 14.3494340843415706 14.3494340881350784
  3.1388851804365325  3.1388851441543206  0.3362479101373007
  8.7441596554348990  3.1388851441543215  0.3362479101373017
 14.3494341304332522  3.1388851441543220  0.3362479101373020
  3.1388851804365325  8.7441596191526720  0.3362479101373004
  8.7441596554348990  8.7441596191526738  0.3362479101373017
 14.3494341304332504  8.7441596191526738  0.3362479101373022
  3.1388851804365339 14.3494340941510394  0.3362479101372992
  8.7441596554349008 14.3494340941510412  0.3362479101373002
 14.3494341304332540 14.3494340941510412  0.3362479101373006
  3.1388851804365316  3.1388851441543220  5.9415223851356558
  8.7441596554348973  3.1388851441543233  5.9415223851356567
 14.3494341304332504  3.1388851441543233  5.9415223851356567
  3.1388851804365312  8.7441596191526738  5.9415223851356558
  8.7441596554348973  8.7441596191526738  5.9415223851356576
 14.3494341304332504  8.7441596191526756  5.9415223851356576
  3.1388851804365330 14.3494340941510430  5.9415223851356540
  8.7441596554348990 14.3494340941510430  5.9415223851356549
 14.3494341304332522 14.3494340941510430  5.9415223851356558
  3.1388851804365330  3.1388851441543206 11.5467968601340214
  8.7441596554348990  3.1388851441543220 11.5467968601340232
 14.3494341304332522  3.1388851441543224 11.5467968601340214
  3.1388851804365325  8.7441596191526720 11.5467968601340214
  8.7441596554348990  8.7441596191526720 11.5467968601340232
 14.3494341304332522  8.7441596191526738 11.5467968601340232
  3.1388851804365343 14.3494340941510394 11.5467968601340196
  8.7441596554349008 14.3494340941510412 11.5467968601340214
 14.3494341304332540 14.3494340941510430 11.5467968601340214
  1.0116248839795463  1.0116247870240536  1.0116248161735268
  6.6168993589779008  1.0116247870240553  1.0116248161735286
 12.2221738339762549  1.0116247870240567  1.0116248161735302
  1.0116248839795488  6.6168992620224074  1.0116248161735293
  6.6168993589779017  6.6168992620224092  1.0116248161735311
 12.2221738339762585  6.6168992620224101  1.0116248161735322
  1.0116248839795450 12.2221737370207730  1.0116248161735253
  6.6168993589778990 12.2221737370207748  1.0116248161735271
 12.2221738339762531 12.2221737370207748  1.0116248161735284
  1.0116248839795499  1.0116247870240571  6.6168992911718831
  6.6168993589779035  1.0116247870240589  6.6168992911718849
 12.2221738339762585  1.0116247870240602  6.6168992911718867
  1.0116248839795521  6.6168992620224110  6.6168992911718849
  6.6168993589779062  6.6168992620224127  6.6168992911718876
 12.2221738339762602  6.6168992620224145  6.6168992911718885
  1.0116248839795483 12.2221737370207766  6.6168992911718814
  6.6168993589779017 12.2221737370207784  6.6168992911718831
 12.2221738339762567 12.2221737370207801  6.6168992911718849
  1.0116248839795461  1.0116247870240533 12.2221737661702488
  6.6168993589778999  1.0116247870240549 12.2221737661702505
 12.2221738339762549  1.0116247870240562 12.2221737661702523
  1.0116248839795483  6.6168992620224074 12.2221737661702505
  6.6168993589779026  6.6168992620224092 12.2221737661702523
 12.2221738339762567  6.6168992620224110 12.2221737661702541
  1.0116248839795445 12.2221737370207730 12.2221737661702470
  6.6168993589778982 12.2221737370207748 12.2221737661702488
 12.2221738339762531 12.2221737370207748 12.2221737661702488
  5.2661455229407572  5.2661455283123857  5.2661454974515944
 10.8714199979391122  5.2661455283123875  5.2661454974515953
 16.4766944729374671  5.2661455283123892  5.2661454974515971
  5.2661455229407590 10.8714200033107389  5.2661454974515962
 10.8714199979391140 10.8714200033107407  5.2661454974515980
 16.4766944729374671 10.8714200033107424  5.2661454974516007
  5.2661455229407608 16.4766944783090956  5.2661454974515980
 10.8714199979391157 16.4766944783090956  5.2661454974515998
 16.4766944729374707 16.4766944783090992  5.2661454974516015
  5.2661455229407590  5.2661455283123884 10.8714199724499494
 10.8714199979391140  5.2661455283123892 10.8714199724499494
 16.4766944729374671  5.2661455283123910 10.8714199724499512
  5.2661455229407617 10.8714200033107407 10.8714199724499494
 10.8714199979391175 10.8714200033107407 10.8714199724499512
 16.4766944729374707 10.8714200033107442 10.8714199724499530
  5.2661455229407625 16.4766944783090956 10.8714199724499530
 10.8714199979391175 16.4766944783090992 10.8714199724499530
 16.4766944729374707 16.4766944783090992 10.8714199724499547
  5.2661455229407590  5.2661455283123884 16.4766944474482990
 10.8714199979391140  5.2661455283123892 16.4766944474483026
 16.4766944729374671  5.2661455283123901 16.4766944474483026
  5.2661455229407608 10.8714200033107407 16.4766944474483026
 10.8714199979391175 10.8714200033107407 16.4766944474483026
 16.4766944729374707 10.8714200033107442 16.4766944474483061
  5.2661455229407634 16.4766944783090956 16.4766944474483026
 10.8714199979391175 16.4766944783090992 16.4766944474483061
 16.4766944729374707 16.4766944783090992 16.4766944474483061
  2.4635082879974100  5.2661455390912240  3.8142620719131428
  8.0687827629957614  5.2661455390912240  3.8142620719131428
 13.6740572379941145  5.2661455390912257  3.8142620719131406
  2.4635082879974126 10.8714200140895763  3.8142620719131406
  8.0687827629957631 10.8714200140895763  3.8142620719131397
 13.6740572379941181 10.8714200140895798  3.8142620719131384
  2.4635082879974135 16.4766944890879330  3.8142620719131393
  8.0687827629957649 16.4766944890879330  3.8142620719131397
 13.6740572379941199 16.4766944890879365  3.8142620719131375
  2.4635082879974095  5.2661455390912231  9.4195365469114947
  8.0687827629957614  5.2661455390912240  9.4195365469114947
 13.6740572379941163  5.2661455390912257  9.4195365469114929
  2.4635082879974122 10.8714200140895763  9.4195365469114911
  8.0687827629957631 10.8714200140895763  9.4195365469114911
 13.6740572379941181 10.8714200140895780  9.4195365469114893
  2.4635082879974126 16.4766944890879330  9.4195365469114911
  8.0687827629957649 16.4766944890879330  9.4195365469114911
 13.6740572379941199 16.4766944890879365  9.4195365469114893
  2.4635082879974077  5.2661455390912213 15.0248110219098496
  8.0687827629957596  5.2661455390912222 15.0248110219098496
 13.6740572379941145  5.2661455390912240 15.0248110219098479
  2.4635082879974104 10.8714200140895745 15.0248110219098461
  8.0687827629957614 10.8714200140895745 15.0248110219098461
 13.6740572379941163 10.8714200140895763 15.0248110219098443
  2.4635082879974108 16.4766944890879330 15.0248110219098461
  8.0687827629957631 16.4766944890879330 15.0248110219098461
 13.6740572379941181 16.4766944890879330 15.0248110219098443
  3.8142620777277405  1.0116247744116071  2.4635082086615907
  9.4195365527260950  1.0116247744116069  2.4635082086615907
 15.0248110277244571  1.0116247744116036  2.4635082086615943
  3.8142620777277427  6.6168992494099612  2.4635082086615885
  9.4195365527260950  6.6168992494099603  2.4635082086615889
 15.0248110277244606  6.6168992494099577  2.4635082086615920
  3.8142620777277392 12.2221737244083268  2.4635082086615920
  9.4195365527260915 12.2221737244083268  2.4635082086615925
 15.0248110277244571 12.2221737244083233  2.4635082086615956
  3.8142620777277410  1.0116247744116076  8.0687826836599434
  9.4195365527260932  1.0116247744116071  8.0687826836599434
 15.0248110277244589  1.0116247744116038  8.0687826836599470
  3.8142620777277432  6.6168992494099612  8.0687826836599417
  9.4195365527260950  6.6168992494099612  8.0687826836599417
 15.0248110277244606  6.6168992494099577  8.0687826836599452
  3.8142620777277396 12.2221737244083268  8.0687826836599452
  9.4195365527260915 12.2221737244083268  8.0687826836599452
 15.0248110277244571 12.2221737244083233  8.0687826836599470
  3.8142620777277436  1.0116247744116105 13.6740571586583073
  9.4195365527260968  1.0116247744116105 13.6740571586583073
 15.0248110277244624  1.0116247744116069 13.6740571586583108
  3.8142620777277458  6.6168992494099648 13.6740571586583055
  9.4195365527260986  6.6168992494099630 13.6740571586583055
 15.0248110277244642  6.6168992494099603 13.6740571586583091
  3.8142620777277423 12.2221737244083304 13.6740571586583091
  9.4195365527260950 12.2221737244083304 13.6740571586583091
 15.0248110277244606 12.2221737244083268 13.6740571586583126
  5.2661455457293282  3.8142620185103420  2.4635082242302233
 10.8714200207276974  3.8142620185103424  2.4635082242302229
 16.4766944957260506  3.8142620185103420  2.4635082242302233
  5.2661455457293300  9.4195364935087103  2.4635082242302255
 10.8714200207276992  9.4195364935087103  2.4635082242302255
 16.4766944957260506  9.4195364935087103  2.4635082242302255
  5.2661455457293282 15.0248109685070617  2.4635082242302229
 10.8714200207276974 15.0248109685070617  2.4635082242302229
 16.4766944957260506 15.0248109685070617  2.4635082242302233
  5.2661455457293318  3.8142620185103389  8.0687826992285796
 10.8714200207277010  3.8142620185103384  8.0687826992285796
 16.4766944957260506  3.8142620185103384  8.0687826992285796
  5.2661455457293336  9.4195364935087067  8.0687826992285814
 10.8714200207277027  9.4195364935087067  8.0687826992285814
 16.4766944957260542  9.4195364935087067  8.0687826992285814
  5.2661455457293318 15.0248109685070599  8.0687826992285814
 10.8714200207276992 15.0248109685070599  8.0687826992285814
 16.4766944957260506 15.0248109685070599  8.0687826992285814
  5.2661455457293282  3.8142620185103424 13.6740571742269452
 10.8714200207276974  3.8142620185103424 13.6740571742269452
 16.4766944957260506  3.8142620185103420 13.6740571742269452
  5.2661455457293300  9.4195364935087103 13.6740571742269470
 10.8714200207276992  9.4195364935087103 13.6740571742269470
 16.4766944957260506  9.4195364935087103 13.6740571742269470
  5.2661455457293282 15.0248109685070634 13.6740571742269452
 10.8714200207276974 15.0248109685070634 13.6740571742269452
 16.4766944957260506 15.0248109685070634 13.6740571742269452
  1.0116248571680704  2.4635082654358840  3.8142620481527287
  6.6168993321664233  2.4635082654358844  3.8142620481527292
 12.2221738071647898  2.4635082654358835  3.8142620481527292
  1.0116248571680668  8.0687827404342407  3.8142620481527252
  6.6168993321664198  8.0687827404342407  3.8142620481527252
 12.2221738071647881  8.0687827404342407  3.8142620481527256
  1.0116248571680702 13.6740572154326046  3.8142620481527287
  6.6168993321664233 13.6740572154326046  3.8142620481527287
 12.2221738071647898 13.6740572154326046  3.8142620481527292
  1.0116248571680682  2.4635082654358862  9.4195365231510966
  6.6168993321664216  2.4635082654358862  9.4195365231510966
 12.2221738071647881  2.4635082654358857  9.4195365231510966
  1.0116248571680648  8.0687827404342425  9.4195365231510948
  6.6168993321664180  8.0687827404342425  9.4195365231510930
 12.2221738071647845  8.0687827404342425  9.4195365231510948
  1.0116248571680679 13.6740572154326063  9.4195365231510966
  6.6168993321664207 13.6740572154326081  9.4195365231510966
 12.2221738071647881 13.6740572154326063  9.4195365231510966
  1.0116248571680706  2.4635082654358835 15.0248109981494498
  6.6168993321664233  2.4635082654358835 15.0248109981494498
 12.2221738071647898  2.4635082654358835 15.0248109981494515
  1.0116248571680673  8.0687827404342425 15.0248109981494480
  6.6168993321664198  8.0687827404342407 15.0248109981494480
 12.2221738071647881  8.0687827404342407 15.0248109981494462
  1.0116248571680704 13.6740572154326046 15.0248109981494498
  6.6168993321664233 13.6740572154326046 15.0248109981494498
 12.2221738071647898 13.6740572154326046 15.0248109981494498
  3.8142620411617374  2.4635082241503290  5.2661454843043227
  9.4195365161600932  2.4635082241503254  5.2661454843043192
 15.0248109911584464  2.4635082241503259  5.2661454843043192
  3.8142620411617374  8.0687826991486808  5.2661454843043227
  9.4195365161600932  8.0687826991486791  5.2661454843043192
 15.0248109911584464  8.0687826991486791  5.2661454843043192
  3.8142620411617338 13.6740571741470394  5.2661454843043263
  9.4195365161600915 13.6740571741470358  5.2661454843043218
 15.0248109911584447 13.6740571741470358  5.2661454843043227
  3.8142620411617396  2.4635082241503268 10.8714199593026901
  9.4195365161600968  2.4635082241503228 10.8714199593026866
 15.0248109911584500  2.4635082241503232 10.8714199593026866
  3.8142620411617401  8.0687826991486791 10.8714199593026901
  9.4195365161600968  8.0687826991486755 10.8714199593026866
 15.0248109911584500  8.0687826991486755 10.8714199593026866
  3.8142620411617361 13.6740571741470358 10.8714199593026937
  9.4195365161600932 13.6740571741470323 10.8714199593026901
 15.0248109911584464 13.6740571741470340 10.8714199593026901
  3.8142620411617401  2.4635082241503263 16.4766944343010451
  9.4195365161600968  2.4635082241503232 16.4766944343010380
 15.0248109911584500  2.4635082241503232 16.4766944343010380
  3.8142620411617401  8.0687826991486791 16.4766944343010415
  9.4195365161600968  8.0687826991486755 16.4766944343010380
 15.0248109911584500  8.0687826991486755 16.4766944343010380
  3.8142620411617365 13.6740571741470376 16.4766944343010451
  9.4195365161600932 13.6740571741470323 16.4766944343010451
 15.0248109911584464 13.6740571741470323 16.4766944343010451
  2.4635083299625231  3.8142620542516323  1.0116248313779788
  8.0687828049608914  3.8142620542516341  1.0116248313779808
 13.6740572799592428  3.8142620542516337  1.0116248313779803
  2.4635083299625227  9.4195365292499833  1.0116248313779790
  8.0687828049608914  9.4195365292499851  1.0116248313779814
 13.6740572799592428  9.4195365292499851  1.0116248313779808
  2.4635083299625253 15.0248110042483543  1.0116248313779765
  8.0687828049608932 15.0248110042483560  1.0116248313779792
 13.6740572799592446 15.0248110042483560  1.0116248313779785
  2.4635083299625267  3.8142620542516283  6.6168993063763430
  8.0687828049608949  3.8142620542516306  6.6168993063763466
 13.6740572799592464  3.8142620542516301  6.6168993063763457
  2.4635083299625267  9.4195365292499798  6.6168993063763430
  8.0687828049608949  9.4195365292499815  6.6168993063763466
 13.6740572799592464  9.4195365292499815  6.6168993063763457
  2.4635083299625289 15.0248110042483489  6.6168993063763422
  8.0687828049608967 15.0248110042483507  6.6168993063763439
 13.6740572799592499 15.0248110042483507  6.6168993063763439
  2.4635083299625236  3.8142620542516323 12.2221737813746980
  8.0687828049608914  3.8142620542516341 12.2221737813747016
 13.6740572799592446  3.8142620542516337 12.2221737813747016
  2.4635083299625231  9.4195365292499833 12.2221737813746980
  8.0687828049608914  9.4195365292499851 12.2221737813747016
 13.6740572799592446  9.4195365292499851 12.2221737813747016
  2.4635083299625253 15.0248110042483543 12.2221737813746980
  8.0687828049608949 15.0248110042483543 12.2221737813746998
 13.6740572799592446 15.0248110042483560 12.2221737813746998
