 C  H 
 1.0000000000000000
    14.7799999999999994    0.0000000000000000    0.0000000000000000
     0.0000000000000000   18.8399999999999999    0.0000000000000000
     0.0000000000000000    0.0000000000000000   13.6199999999999992
 C   H  
 192 192
Cartesian
  6.9463468752845658  1.3248168458061755  6.7664582828340594
  6.3704020118802420  0.4262162679535525  0.8589446915789790
  0.5726238999661054  0.8972247536872794  5.9079062928210586
  6.8173761323685307  8.5227752335095524  0.9020937823469758
  1.0195979916684801  8.9937837320464471  5.9510553355801168
  0.4436531731983538  8.0951831555324869  0.0435417860338625
  4.1386531222561702  6.0348166703501560  6.7664582751512121
  6.9463468333406579  3.3851831998178543  3.3614581834969637
  4.1386530249663487  8.0951831399536012  3.3614584027943932
  3.2513469216032700  3.3851833004973897  0.0435417171659404
  0.4436531247154342  6.0348168009988647  3.4485418075302139
  3.2513469363898881  1.3248168312783406  3.4485416585443609
  4.7145979622705738  5.1362162413061361  0.8589446578707648
  6.3704020380342943  4.2837836990597955  4.2639447019351149
  4.7145980607504603  8.9937837011726067  4.2639447365400072
  2.6754020364427435  4.2837837318376826  5.9510553764017970
  1.0195979595132676  5.1362163014700473  2.5460553249412499
  2.6754019423105051  0.4262162710091839  2.5460552874569844
  3.1223761458571229  5.6072245615608951  5.9079063672394661
  0.5726238283547087  3.8127753137482476  2.5029062350565763
  3.1223760367094857  8.5227752592301442  2.5029064254990061
  4.2676238832037798  3.8127754189419547  0.9020936162205111
  6.8173761436931182  5.6072246735436959  4.3070937448798396
  4.2676239386218402  0.8972247225830534  4.3070936481207580
  6.9463468752845658  1.3248168458061755 13.5764582828340590
  6.3704020118802420  0.4262162679535525  7.6689446915789778
  0.5726238999661054  0.8972247536872794 12.7179062928210573
  6.8173761323685307  8.5227752335095524  7.7120937823469742
  1.0195979916684801  8.9937837320464471 12.7610553355801173
  0.4436531731983538  8.0951831555324869  6.8535417860338610
  4.1386531222561702  6.0348166703501560 13.5764582751512108
  6.9463468333406579  3.3851831998178543 10.1714581834969628
  4.1386530249663487  8.0951831399536012 10.1714584027943911
  3.2513469216032700  3.3851833004973897  6.8535417171659399
  0.4436531247154342  6.0348168009988647 10.2585418075302144
  3.2513469363898881  1.3248168312783406 10.2585416585443614
  4.7145979622705738  5.1362162413061361  7.6689446578707647
  6.3704020380342943  4.2837836990597955 11.0739447019351154
  4.7145980607504603  8.9937837011726067 11.0739447365400050
  2.6754020364427435  4.2837837318376826 12.7610553764017958
  1.0195979595132676  5.1362163014700473  9.3560553249412486
  2.6754019423105051  0.4262162710091839  9.3560552874569840
  3.1223761458571229  5.6072245615608951 12.7179063672394665
  0.5726238283547087  3.8127753137482476  9.3129062350565750
  3.1223760367094857  8.5227752592301442  9.3129064254990066
  4.2676238832037798  3.8127754189419547  7.7120936162205096
  6.8173761436931182  5.6072246735436959 11.1170937448798384
  4.2676239386218402  0.8972247225830534 11.1170936481207576
  6.9463468752845658 10.7448168458061755  6.7664582828340594
  6.3704020118802420  9.8462162679535528  0.8589446915789790
  0.5726238999661054 10.3172247536872792  5.9079062928210586
  6.8173761323685307 17.9427752335095505  0.9020937823469758
  1.0195979916684801 18.4137837320464470  5.9510553355801168
  0.4436531731983538 17.5151831555324868  0.0435417860338625
  4.1386531222561702 15.4548166703501551  6.7664582751512121
  6.9463468333406579 12.8051831998178542  3.3614581834969637
  4.1386530249663487 17.5151831399535993  3.3614584027943932
  3.2513469216032700 12.8051833004973918  0.0435417171659404
  0.4436531247154342 15.4548168009988647  3.4485418075302139
  3.2513469363898881 10.7448168312783405  3.4485416585443609
  4.7145979622705738 14.5562162413061369  0.8589446578707648
  6.3704020380342943 13.7037836990597945  4.2639447019351149
  4.7145980607504603 18.4137837011726049  4.2639447365400072
  2.6754020364427435 13.7037837318376816  5.9510553764017970
  1.0195979595132676 14.5562163014700499  2.5460553249412499
  2.6754019423105051  9.8462162710091832  2.5460552874569844
  3.1223761458571229 15.0272245615608977  5.9079063672394661
  0.5726238283547087 13.2327753137482471  2.5029062350565763
  3.1223760367094857 17.9427752592301459  2.5029064254990061
  4.2676238832037798 13.2327754189419551  0.9020936162205111
  6.8173761436931182 15.0272246735436958  4.3070937448798396
  4.2676239386218402 10.3172247225830542  4.3070936481207580
  6.9463468752845658 10.7448168458061755 13.5764582828340590
  6.3704020118802420  9.8462162679535528  7.6689446915789778
  0.5726238999661054 10.3172247536872792 12.7179062928210573
  6.8173761323685307 17.9427752335095505  7.7120937823469742
  1.0195979916684801 18.4137837320464470 12.7610553355801173
  0.4436531731983538 17.5151831555324868  6.8535417860338610
  4.1386531222561702 15.4548166703501551 13.5764582751512108
  6.9463468333406579 12.8051831998178542 10.1714581834969628
  4.1386530249663487 17.5151831399535993 10.1714584027943911
  3.2513469216032700 12.8051833004973918  6.8535417171659399
  0.4436531247154342 15.4548168009988647 10.2585418075302144
  3.2513469363898881 10.7448168312783405 10.2585416585443614
  4.7145979622705738 14.5562162413061369  7.6689446578707647
  6.3704020380342943 13.7037836990597945 11.0739447019351154
  4.7145980607504603 18.4137837011726049 11.0739447365400050
  2.6754020364427435 13.7037837318376816 12.7610553764017958
  1.0195979595132676 14.5562163014700499  9.3560553249412486
  2.6754019423105051  9.8462162710091832  9.3560552874569840
  3.1223761458571229 15.0272245615608977 12.7179063672394665
  0.5726238283547087 13.2327753137482471  9.3129062350565750
  3.1223760367094857 17.9427752592301459  9.3129064254990066
  4.2676238832037798 13.2327754189419551  7.7120936162205096
  6.8173761436931182 15.0272246735436958 11.1170937448798384
  4.2676239386218402 10.3172247225830542 11.1170936481207576
 14.3363468752845655  1.3248168458061755  6.7664582828340594
 13.7604020118802399  0.4262162679535525  0.8589446915789790
  7.9626238999661050  0.8972247536872794  5.9079062928210586
 14.2073761323685286  8.5227752335095524  0.9020937823469758
  8.4095979916684804  8.9937837320464471  5.9510553355801168
  7.8336531731983534  8.0951831555324869  0.0435417860338625
 11.5286531222561699  6.0348166703501560  6.7664582751512121
 14.3363468333406576  3.3851831998178543  3.3614581834969637
 11.5286530249663492  8.0951831399536012  3.3614584027943932
 10.6413469216032706  3.3851833004973897  0.0435417171659404
  7.8336531247154335  6.0348168009988647  3.4485418075302139
 10.6413469363898852  1.3248168312783406  3.4485416585443609
 12.1045979622705726  5.1362162413061361  0.8589446578707648
 13.7604020380342913  4.2837836990597955  4.2639447019351149
 12.1045980607504600  8.9937837011726067  4.2639447365400072
 10.0654020364427428  4.2837837318376826  5.9510553764017970
  8.4095979595132651  5.1362163014700473  2.5460553249412499
 10.0654019423105048  0.4262162710091839  2.5460552874569844
 10.5123761458571217  5.6072245615608951  5.9079063672394661
  7.9626238283547082  3.8127753137482476  2.5029062350565763
 10.5123760367094832  8.5227752592301442  2.5029064254990061
 11.6576238832037795  3.8127754189419547  0.9020936162205111
 14.2073761436931179  5.6072246735436959  4.3070937448798396
 11.6576239386218372  0.8972247225830534  4.3070936481207580
 14.3363468752845655  1.3248168458061755 13.5764582828340590
 13.7604020118802399  0.4262162679535525  7.6689446915789778
  7.9626238999661050  0.8972247536872794 12.7179062928210573
 14.2073761323685286  8.5227752335095524  7.7120937823469742
  8.4095979916684804  8.9937837320464471 12.7610553355801173
  7.8336531731983534  8.0951831555324869  6.8535417860338610
 11.5286531222561699  6.0348166703501560 13.5764582751512108
 14.3363468333406576  3.3851831998178543 10.1714581834969628
 11.5286530249663492  8.0951831399536012 10.1714584027943911
 10.6413469216032706  3.3851833004973897  6.8535417171659399
  7.8336531247154335  6.0348168009988647 10.2585418075302144
 10.6413469363898852  1.3248168312783406 10.2585416585443614
 12.1045979622705726  5.1362162413061361  7.6689446578707647
 13.7604020380342913  4.2837836990597955 11.0739447019351154
 12.1045980607504600  8.9937837011726067 11.0739447365400050
 10.0654020364427428  4.2837837318376826 12.7610553764017958
  8.4095979595132651  5.1362163014700473  9.3560553249412486
 10.0654019423105048  0.4262162710091839  9.3560552874569840
 10.5123761458571217  5.6072245615608951 12.7179063672394665
  7.9626238283547082  3.8127753137482476  9.3129062350565750
 10.5123760367094832  8.5227752592301442  9.3129064254990066
 11.6576238832037795  3.8127754189419547  7.7120936162205096
 14.2073761436931179  5.6072246735436959 11.1170937448798384
 11.6576239386218372  0.8972247225830534 11.1170936481207576
 14.3363468752845655 10.7448168458061755  6.7664582828340594
 13.7604020118802399  9.8462162679535528  0.8589446915789790
  7.9626238999661050 10.3172247536872792  5.9079062928210586
 14.2073761323685286 17.9427752335095505  0.9020937823469758
  8.4095979916684804 18.4137837320464470  5.9510553355801168
  7.8336531731983534 17.5151831555324868  0.0435417860338625
 11.5286531222561699 15.4548166703501551  6.7664582751512121
 14.3363468333406576 12.8051831998178542  3.3614581834969637
 11.5286530249663492 17.5151831399535993  3.3614584027943932
 10.6413469216032706 12.8051833004973918  0.0435417171659404
  7.8336531247154335 15.4548168009988647  3.4485418075302139
 10.6413469363898852 10.7448168312783405  3.4485416585443609
 12.1045979622705726 14.5562162413061369  0.8589446578707648
 13.7604020380342913 13.7037836990597945  4.2639447019351149
 12.1045980607504600 18.4137837011726049  4.2639447365400072
 10.0654020364427428 13.7037837318376816  5.9510553764017970
  8.4095979595132651 14.5562163014700499  2.5460553249412499
 10.0654019423105048  9.8462162710091832  2.5460552874569844
 10.5123761458571217 15.0272245615608977  5.9079063672394661
  7.9626238283547082 13.2327753137482471  2.5029062350565763
 10.5123760367094832 17.9427752592301459  2.5029064254990061
 11.6576238832037795 13.2327754189419551  0.9020936162205111
 14.2073761436931179 15.0272246735436958  4.3070937448798396
 11.6576239386218372 10.3172247225830542  4.3070936481207580
 14.3363468752845655 10.7448168458061755 13.5764582828340590
 13.7604020118802399  9.8462162679535528  7.6689446915789778
  7.9626238999661050 10.3172247536872792 12.7179062928210573
 14.2073761323685286 17.9427752335095505  7.7120937823469742
  8.4095979916684804 18.4137837320464470 12.7610553355801173
  7.8336531731983534 17.5151831555324868  6.8535417860338610
 11.5286531222561699 15.4548166703501551 13.5764582751512108
 14.3363468333406576 12.8051831998178542 10.1714581834969628
 11.5286530249663492 17.5151831399535993 10.1714584027943911
 10.6413469216032706 12.8051833004973918  6.8535417171659399
  7.8336531247154335 15.4548168009988647 10.2585418075302144
 10.6413469363898852 10.7448168312783405 10.2585416585443614
 12.1045979622705726 14.5562162413061369  7.6689446578707647
 13.7604020380342913 13.7037836990597945 11.0739447019351154
 12.1045980607504600 18.4137837011726049 11.0739447365400050
 10.0654020364427428 13.7037837318376816 12.7610553764017958
  8.4095979595132651 14.5562163014700499  9.3560553249412486
 10.0654019423105048  9.8462162710091832  9.3560552874569840
 10.5123761458571217 15.0272245615608977 12.7179063672394665
  7.9626238283547082 13.2327753137482471  9.3129062350565750
 10.5123760367094832 17.9427752592301459  9.3129064254990066
 11.6576238832037795 13.2327754189419551  7.7120936162205096
 14.2073761436931179 15.0272246735436958 11.1170937448798384
 11.6576239386218372 10.3172247225830542 11.1170936481207576
  6.6038737079038183  2.3596082585780547  6.7305438640532547
  5.5696803364061349  0.7469199298611704  1.5259389872515674
  1.0143408148461841  1.5933967937434803  5.1962591806778216
  6.3756591871714781  7.8266031963879010  1.6137408467827801
  1.8203196635272303  8.6730800580108145  5.2840610402902772
  0.7861262955746485  7.0603917266586409  0.0794561662616078
  4.4811262834797008  7.0696083639186797  6.7305438461970324
  6.6038736843557926  2.3503916919501338  3.3255438013799594
  4.4811263310544751  7.0603916297706659  3.3255438714402579
  2.9088737197452517  2.3503916205102668  0.0794561800735640
  0.7861263158610172  7.0696082930914503  3.4844562250504141
  2.9088736695265909  2.3596083549220634  3.4844561579985407
  5.5153195703092806  5.4569199282820167  1.5259389220383395
  5.5696803829721571  3.9630800115439664  4.9309389221264057
  5.5153195788467375  8.6730800737589746  4.9309388775072378
  1.8746804297177084  3.9630800533712796  5.2840611070630006
  1.8203196208589068  5.4569199764827019  1.8790611069432894
  1.8746804247231479  0.7469199077663446  1.8790611494777585
  2.6806591913563493  6.3033967443118932  5.1962591443096242
  1.0143408292888143  3.1166032764088625  1.7912591149120034
  2.6806591222902787  7.8266031492271546  1.7912590983920145
  4.7093408107402865  3.1166032349082498  1.6137408845409698
  6.3756591724053928  6.3033967140203035  5.0187409145668598
  4.7093408792685585  1.5933968296524996  5.0187409283931395
  6.6038737079038183  2.3596082585780547 13.5405438640532552
  5.5696803364061349  0.7469199298611704  8.3359389872515663
  1.0143408148461841  1.5933967937434803 12.0062591806778194
  6.3756591871714781  7.8266031963879010  8.4237408467827777
  1.8203196635272303  8.6730800580108145 12.0940610402902777
  0.7861262955746485  7.0603917266586409  6.8894561662616072
  4.4811262834797008  7.0696083639186797 13.5405438461970320
  6.6038736843557926  2.3503916919501338 10.1355438013799599
  4.4811263310544751  7.0603916297706659 10.1355438714402570
  2.9088737197452517  2.3503916205102668  6.8894561800735641
  0.7861263158610172  7.0696082930914503 10.2944562250504141
  2.9088736695265909  2.3596083549220634 10.2944561579985407
  5.5153195703092806  5.4569199282820167  8.3359389220383395
  5.5696803829721571  3.9630800115439664 11.7409389221264053
  5.5153195788467375  8.6730800737589746 11.7409388775072365
  1.8746804297177084  3.9630800533712796 12.0940611070630020
  1.8203196208589068  5.4569199764827019  8.6890611069432886
  1.8746804247231479  0.7469199077663446  8.6890611494777588
  2.6806591913563493  6.3033967443118932 12.0062591443096220
  1.0143408292888143  3.1166032764088625  8.6012591149120023
  2.6806591222902787  7.8266031492271546  8.6012590983920134
  4.7093408107402865  3.1166032349082498  8.4237408845409689
  6.3756591724053928  6.3033967140203035 11.8287409145668612
  4.7093408792685585  1.5933968296524996 11.8287409283931382
  6.6038737079038183 11.7796082585780564  6.7305438640532547
  5.5696803364061349 10.1669199298611694  1.5259389872515674
  1.0143408148461841 11.0133967937434818  5.1962591806778216
  6.3756591871714781 17.2466031963879018  1.6137408467827801
  1.8203196635272303 18.0930800580108126  5.2840610402902772
  0.7861262955746485 16.4803917266586417  0.0794561662616078
  4.4811262834797008 16.4896083639186770  6.7305438461970324
  6.6038736843557926 11.7703916919501363  3.3255438013799594
  4.4811263310544751 16.4803916297706650  3.3255438714402579
  2.9088737197452517 11.7703916205102672  0.0794561800735640
  0.7861263158610172 16.4896082930914503  3.4844562250504141
  2.9088736695265909 11.7796083549220629  3.4844561579985407
  5.5153195703092806 14.8769199282820193  1.5259389220383395
  5.5696803829721571 13.3830800115439672  4.9309389221264057
  5.5153195788467375 18.0930800737589763  4.9309388775072378
  1.8746804297177084 13.3830800533712786  5.2840611070630006
  1.8203196208589068 14.8769199764827018  1.8790611069432894
  1.8746804247231479 10.1669199077663439  1.8790611494777585
  2.6806591913563493 15.7233967443118932  5.1962591443096242
  1.0143408292888143 12.5366032764088615  1.7912591149120034
  2.6806591222902787 17.2466031492271554  1.7912590983920145
  4.7093408107402865 12.5366032349082488  1.6137408845409698
  6.3756591724053928 15.7233967140203035  5.0187409145668598
  4.7093408792685585 11.0133968296525016  5.0187409283931395
  6.6038737079038183 11.7796082585780564 13.5405438640532552
  5.5696803364061349 10.1669199298611694  8.3359389872515663
  1.0143408148461841 11.0133967937434818 12.0062591806778194
  6.3756591871714781 17.2466031963879018  8.4237408467827777
  1.8203196635272303 18.0930800580108126 12.0940610402902777
  0.7861262955746485 16.4803917266586417  6.8894561662616072
  4.4811262834797008 16.4896083639186770 13.5405438461970320
  6.6038736843557926 11.7703916919501363 10.1355438013799599
  4.4811263310544751 16.4803916297706650 10.1355438714402570
  2.9088737197452517 11.7703916205102672  6.8894561800735641
  0.7861263158610172 16.4896082930914503 10.2944562250504141
  2.9088736695265909 11.7796083549220629 10.2944561579985407
  5.5153195703092806 14.8769199282820193  8.3359389220383395
  5.5696803829721571 13.3830800115439672 11.7409389221264053
  5.5153195788467375 18.0930800737589763 11.7409388775072365
  1.8746804297177084 13.3830800533712786 12.0940611070630020
  1.8203196208589068 14.8769199764827018  8.6890611069432886
  1.8746804247231479 10.1669199077663439  8.6890611494777588
  2.6806591913563493 15.7233967443118932 12.0062591443096220
  1.0143408292888143 12.5366032764088615  8.6012591149120023
  2.6806591222902787 17.2466031492271554  8.6012590983920134
  4.7093408107402865 12.5366032349082488  8.4237408845409689
  6.3756591724053928 15.7233967140203035 11.8287409145668612
  4.7093408792685585 11.0133968296525016 11.8287409283931382
 13.9938737079038162  2.3596082585780547  6.7305438640532547
 12.9596803364061355  0.7469199298611704  1.5259389872515674
  8.4043408148461811  1.5933967937434803  5.1962591806778216
 13.7656591871714777  7.8266031963879010  1.6137408467827801
  9.2103196635272280  8.6730800580108145  5.2840610402902772
  8.1761262955746457  7.0603917266586409  0.0794561662616078
 11.8711262834797004  7.0696083639186797  6.7305438461970324
 13.9938736843557923  2.3503916919501338  3.3255438013799594
 11.8711263310544748  7.0603916297706659  3.3255438714402579
 10.2988737197452505  2.3503916205102668  0.0794561800735640
  8.1761263158610173  7.0696082930914503  3.4844562250504141
 10.2988736695265910  2.3596083549220634  3.4844561579985407
 12.9053195703092811  5.4569199282820167  1.5259389220383395
 12.9596803829721576  3.9630800115439664  4.9309389221264057
 12.9053195788467345  8.6730800737589746  4.9309388775072378
  9.2646804297177088  3.9630800533712796  5.2840611070630006
  9.2103196208589058  5.4569199764827019  1.8790611069432894
  9.2646804247231476  0.7469199077663446  1.8790611494777585
 10.0706591913563468  6.3033967443118932  5.1962591443096242
  8.4043408292888113  3.1166032764088625  1.7912591149120034
 10.0706591222902766  7.8266031492271546  1.7912590983920145
 12.0993408107402853  3.1166032349082498  1.6137408845409698
 13.7656591724053925  6.3033967140203035  5.0187409145668598
 12.0993408792685582  1.5933968296524996  5.0187409283931395
 13.9938737079038162  2.3596082585780547 13.5405438640532552
 12.9596803364061355  0.7469199298611704  8.3359389872515663
  8.4043408148461811  1.5933967937434803 12.0062591806778194
 13.7656591871714777  7.8266031963879010  8.4237408467827777
  9.2103196635272280  8.6730800580108145 12.0940610402902777
  8.1761262955746457  7.0603917266586409  6.8894561662616072
 11.8711262834797004  7.0696083639186797 13.5405438461970320
 13.9938736843557923  2.3503916919501338 10.1355438013799599
 11.8711263310544748  7.0603916297706659 10.1355438714402570
 10.2988737197452505  2.3503916205102668  6.8894561800735641
  8.1761263158610173  7.0696082930914503 10.2944562250504141
 10.2988736695265910  2.3596083549220634 10.2944561579985407
 12.9053195703092811  5.4569199282820167  8.3359389220383395
 12.9596803829721576  3.9630800115439664 11.7409389221264053
 12.9053195788467345  8.6730800737589746 11.7409388775072365
  9.2646804297177088  3.9630800533712796 12.0940611070630020
  9.2103196208589058  5.4569199764827019  8.6890611069432886
  9.2646804247231476  0.7469199077663446  8.6890611494777588
 10.0706591913563468  6.3033967443118932 12.0062591443096220
  8.4043408292888113  3.1166032764088625  8.6012591149120023
 10.0706591222902766  7.8266031492271546  8.6012590983920134
 12.0993408107402853  3.1166032349082498  8.4237408845409689
 13.7656591724053925  6.3033967140203035 11.8287409145668612
 12.0993408792685582  1.5933968296524996 11.8287409283931382
 13.9938737079038162 11.7796082585780564  6.7305438640532547
 12.9596803364061355 10.1669199298611694  1.5259389872515674
  8.4043408148461811 11.0133967937434818  5.1962591806778216
 13.7656591871714777 17.2466031963879018  1.6137408467827801
  9.2103196635272280 18.0930800580108126  5.2840610402902772
  8.1761262955746457 16.4803917266586417  0.0794561662616078
 11.8711262834797004 16.4896083639186770  6.7305438461970324
 13.9938736843557923 11.7703916919501363  3.3255438013799594
 11.8711263310544748 16.4803916297706650  3.3255438714402579
 10.2988737197452505 11.7703916205102672  0.0794561800735640
  8.1761263158610173 16.4896082930914503  3.4844562250504141
 10.2988736695265910 11.7796083549220629  3.4844561579985407
 12.9053195703092811 14.8769199282820193  1.5259389220383395
 12.9596803829721576 13.3830800115439672  4.9309389221264057
 12.9053195788467345 18.0930800737589763  4.9309388775072378
  9.2646804297177088 13.3830800533712786  5.2840611070630006
  9.2103196208589058 14.8769199764827018  1.8790611069432894
  9.2646804247231476 10.1669199077663439  1.8790611494777585
 10.0706591913563468 15.7233967443118932  5.1962591443096242
  8.4043408292888113 12.5366032764088615  1.7912591149120034
 10.0706591222902766 17.2466031492271554  1.7912590983920145
 12.0993408107402853 12.5366032349082488  1.6137408845409698
 13.7656591724053925 15.7233967140203035  5.0187409145668598
 12.0993408792685582 11.0133968296525016  5.0187409283931395
 13.9938737079038162 11.7796082585780564 13.5405438640532552
 12.9596803364061355 10.1669199298611694  8.3359389872515663
  8.4043408148461811 11.0133967937434818 12.0062591806778194
 13.7656591871714777 17.2466031963879018  8.4237408467827777
  9.2103196635272280 18.0930800580108126 12.0940610402902777
  8.1761262955746457 16.4803917266586417  6.8894561662616072
 11.8711262834797004 16.4896083639186770 13.5405438461970320
 13.9938736843557923 11.7703916919501363 10.1355438013799599
 11.8711263310544748 16.4803916297706650 10.1355438714402570
 10.2988737197452505 11.7703916205102672  6.8894561800735641
  8.1761263158610173 16.4896082930914503 10.2944562250504141
 10.2988736695265910 11.7796083549220629 10.2944561579985407
 12.9053195703092811 14.8769199282820193  8.3359389220383395
 12.9596803829721576 13.3830800115439672 11.7409389221264053
 12.9053195788467345 18.0930800737589763 11.7409388775072365
  9.2646804297177088 13.3830800533712786 12.0940611070630020
  9.2103196208589058 14.8769199764827018  8.6890611069432886
  9.2646804247231476 10.1669199077663439  8.6890611494777588
 10.0706591913563468 15.7233967443118932 12.0062591443096220
  8.4043408292888113 12.5366032764088615  8.6012591149120023
 10.0706591222902766 17.2466031492271554  8.6012590983920134
 12.0993408107402853 12.5366032349082488  8.4237408845409689
 13.7656591724053925 15.7233967140203035 11.8287409145668612
 12.0993408792685582 11.0133968296525016 11.8287409283931382
