super cell
        1.0000000000
   9.766467554562363   0.000000000000000   0.000000000000000
  -4.883233777281181   8.458009007487489   0.000000000000000
   0.000000000000002   0.000000000000004  27.682301925269712
   72   72   72
 Direct
   0.000000044879938   0.134085490922986   0.062499998904377
   0.000000044879938   0.134085490922986   0.312499998904378
   0.000000044879938   0.134085490922986   0.562499998904378
   0.000000044879938   0.134085490922986   0.812499998904378
   1.000000044354784   0.865916966217044   0.187499998880582
   1.000000044354784   0.865916966217044   0.437499998880582
   1.000000044354784   0.865916966217044   0.687499998880582
   1.000000044354784   0.865916966217044   0.937499998880582
   0.865915781781438   0.865916966217044   0.062499998904377
   0.865915781781438   0.865916966217044   0.312499998904378
   0.865915781781438   0.865916966217044   0.562499998904378
   0.865915781781438   0.865916966217044   0.812499998904378
   0.134084306429372   0.134085490922986   0.187499998880582
   0.134084306429372   0.134085490922986   0.437499998880582
   0.134084306429372   0.134085490922986   0.687499998880582
   0.134084306429372   0.134085490922986   0.937499998880582
   0.134084306465295   0.000001228421487   0.062499998904377
   0.134084306465295   0.000001228421487   0.312499998904378
   0.134084306465295   0.000001228421487   0.562499998904378
   0.134084306465295   0.000001228421487   0.812499998904378
   0.865915782769426   1.000001228718544   0.187499998880582
   0.865915782769426   1.000001228718544   0.437499998880582
   0.865915782769426   1.000001228718544   0.687499998880582
   0.865915782769426   1.000001228718544   0.937499998880582
   0.666666710456481   0.467418823567131   0.145833332101433
   0.666666710456481   0.467418823567131   0.395833332101433
   0.666666710456481   0.467418823567131   0.645833332101433
   0.666666710456481   0.467418823567131   0.895833332101433
   0.666666711119483   0.199250299746443   0.020833332125229
   0.666666711119483   0.199250299746443   0.270833332125228
   0.666666711119483   0.199250299746443   0.520833332125229
   0.666666711119483   0.199250299746443   0.770833332125229
   0.532582448546137   0.199250299746443   0.145833332101433
   0.532582448546137   0.199250299746443   0.395833332101433
   0.532582448546137   0.199250299746443   0.645833332101433
   0.532582448546137   0.199250299746443   0.895833332101433
   0.800750973029827   0.467418823567131   0.020833332125229
   0.800750973029827   0.467418823567131   0.270833332125228
   0.800750973029827   0.467418823567131   0.520833332125229
   0.800750973029827   0.467418823567131   0.770833332125229
   0.800750973065750   0.333334561065631   0.145833332101433
   0.800750973065750   0.333334561065631   0.395833332101433
   0.800750973065750   0.333334561065631   0.645833332101433
   0.800750973065750   0.333334561065631   0.895833332101433
   0.532582448942971   0.333334561065632   0.020833332125229
   0.532582448942971   0.333334561065632   0.270833332125228
   0.532582448942971   0.333334561065632   0.520833332125229
   0.532582448942971   0.333334561065632   0.770833332125229
   0.333333378115238   0.800752157393587   0.229166665659731
   0.333333378115238   0.800752157393587   0.479166665659731
   0.333333378115238   0.800752157393587   0.729166665659731
   0.333333378115238   0.800752157393587   0.979166665659731
   0.333333377163173   0.532583632390588   0.104166665683526
   0.333333377163173   0.532583632390588   0.354166665683526
   0.333333377163173   0.532583632390588   0.604166665683526
   0.333333377163173   0.532583632390588   0.854166665683526
   0.199249115613739   0.532583632390588   0.229166665659731
   0.199249115613739   0.532583632390588   0.479166665659731
   0.199249115613739   0.532583632390588   0.729166665659731
   0.199249115613739   0.532583632390588   0.979166665659731
   0.467417639664672   0.800752157393587   0.104166665683526
   0.467417639664672   0.800752157393587   0.354166665683526
   0.467417639664672   0.800752157393587   0.604166665683526
   0.467417639664672   0.800752157393587   0.854166665683526
   0.467417639700595   0.666667894892088   0.229166665659731
   0.467417639700595   0.666667894892088   0.479166665659731
   0.467417639700595   0.666667894892088   0.729166665659731
   0.467417639700595   0.666667894892088   0.979166665659731
   0.199249115577816   0.666667894892088   0.104166665683526
   0.199249115577816   0.666667894892088   0.354166665683526
   0.199249115577816   0.666667894892088   0.604166665683526
   0.199249115577816   0.666667894892088   0.854166665683526
   1.000000044496313   0.245210220060536   0.062499998904377
   1.000000044496313   0.245210220060536   0.312499998904378
   1.000000044496313   0.245210220060536   0.562499998904378
   1.000000044496313   0.245210220060536   0.812499998904378
   0.000000044147253   0.754792235897183   0.187499998880582
   0.000000044147253   0.754792235897183   0.437499998880582
   0.000000044147253   0.754792235897183   0.687499998880582
   0.000000044147253   0.754792235897183   0.937499998880582
   0.754791052136254   0.754792235897183   0.062499998904377
   0.754791052136254   0.754792235897183   0.312499998904378
   0.754791052136254   0.754792235897183   0.562499998904378
   0.754791052136254   0.754792235897183   0.812499998904378
   0.245209036507312   0.245210220060536   0.187499998880582
   0.245209036507312   0.245210220060536   0.437499998880582
   0.245209036507312   0.245210220060536   0.687499998880582
   0.245209036507312   0.245210220060536   0.937499998880582
   0.245209036329859   1.000001228718544   0.062499998904377
   0.245209036329859   1.000001228718544   0.312499998904378
   0.245209036329859   1.000001228718544   0.562499998904378
   0.245209036329859   1.000001228718544   0.812499998904378
   0.754791052904862   0.000001228421487   0.187499998880582
   0.754791052904862   0.000001228421487   0.437499998880582
   0.754791052904862   0.000001228421487   0.687499998880582
   0.754791052904862   0.000001228421487   0.937499998880582
   0.666666711131158   0.578543553886992   0.145833332101433
   0.666666711131158   0.578543553886992   0.395833332101433
   0.666666711131158   0.578543553886992   0.645833332101433
   0.666666711131158   0.578543553886992   0.895833332101433
   0.666666711468718   0.088125569426583   0.020833332125229
   0.666666711468718   0.088125569426583   0.270833332125228
   0.666666711468718   0.088125569426583   0.520833332125229
   0.666666711468718   0.088125569426583   0.770833332125229
   0.421457718900953   0.088125569426583   0.145833332101433
   0.421457718900953   0.088125569426583   0.395833332101433
   0.421457718900953   0.088125569426583   0.645833332101433
   0.421457718900953   0.088125569426583   0.895833332101433
   0.911875703698923   0.578543553886992   0.020833332125229
   0.911875703698923   0.578543553886992   0.270833332125228
   0.911875703698923   0.578543553886992   0.520833332125229
   0.911875703698923   0.578543553886992   0.770833332125229
   0.911875703060169   0.333334561065631   0.145833332101433
   0.911875703060169   0.333334561065631   0.395833332101433
   0.911875703060169   0.333334561065631   0.645833332101433
   0.911875703060169   0.333334561065631   0.895833332101433
   0.421457718948551   0.333334561065632   0.020833332125229
   0.421457718948551   0.333334561065632   0.270833332125228
   0.421457718948551   0.333334561065632   0.520833332125229
   0.421457718948551   0.333334561065632   0.770833332125229
   0.333333377174847   0.911876886531136   0.229166665659731
   0.333333377174847   0.911876886531136   0.479166665659731
   0.333333377174847   0.911876886531136   0.729166665659731
   0.333333377174847   0.911876886531136   0.979166665659731
   0.333333378103563   0.421458903253039   0.104166665683526
   0.333333378103563   0.421458903253039   0.354166665683526
   0.333333378103563   0.421458903253039   0.604166665683526
   0.333333378103563   0.421458903253039   0.854166665683526
   0.088124385535798   0.421458903253039   0.229166665659731
   0.088124385535798   0.421458903253039   0.479166665659731
   0.088124385535798   0.421458903253039   0.729166665659731
   0.088124385535798   0.421458903253039   0.979166665659731
   0.578542369742612   0.911876886531136   0.104166665683526
   0.578542369742612   0.911876886531136   0.354166665683526
   0.578542369742612   0.911876886531136   0.604166665683526
   0.578542369742612   0.911876886531136   0.854166665683526
   0.578542369695014   0.666667894892088   0.229166665659731
   0.578542369695014   0.666667894892088   0.479166665659731
   0.578542369695014   0.666667894892088   0.729166665659731
   0.578542369695014   0.666667894892088   0.979166665659731
   0.088124385583396   0.666667894892088   0.104166665683526
   0.088124385583396   0.666667894892088   0.354166665683526
   0.088124385583396   0.666667894892088   0.604166665683526
   0.088124385583396   0.666667894892088   0.854166665683526
   0.858764731520874   1.000001228718544   0.062499998904377
   0.858764731520874   1.000001228718544   0.312499998904378
   0.858764731520874   1.000001228718544   0.562499998904378
   0.858764731520874   1.000001228718544   0.812499998904378
   0.141235357713847   0.000001228421487   0.187499998880582
   0.141235357713847   0.000001228421487   0.437499998880582
   0.141235357713847   0.000001228421487   0.687499998880582
   0.141235357713847   0.000001228421487   0.937499998880582
   0.000000044657175   0.858765915662894   0.062499998904377
   0.000000044657175   0.858765915662894   0.312499998904378
   0.000000044657175   0.858765915662894   0.562499998904378
   0.000000044657175   0.858765915662894   0.812499998904378
   0.000000045044692   0.141236541477136   0.187499998880582
   0.000000045044692   0.141236541477136   0.437499998880582
   0.000000045044692   0.141236541477136   0.687499998880582
   0.000000045044692   0.141236541477136   0.937499998880582
   0.141235357842679   0.141236541477136   0.062499998904377
   0.141235357842679   0.141236541477136   0.312499998904378
   0.141235357842679   0.141236541477136   0.562499998904378
   0.141235357842679   0.141236541477136   0.812499998904378
   0.858764731392042   0.858765915662894   0.187499998880582
   0.858764731392042   0.858765915662894   0.437499998880582
   0.858764731392042   0.858765915662894   0.687499998880582
   0.858764731392042   0.858765915662894   0.937499998880582
   0.525431397694418   0.333334561065631   0.145833332101433
   0.525431397694418   0.333334561065631   0.395833332101433
   0.525431397694418   0.333334561065631   0.645833332101433
   0.525431397694418   0.333334561065631   0.895833332101433
   0.807902023290391   0.333334561065632   0.020833332125229
   0.807902023290391   0.333334561065632   0.270833332125228
   0.807902023290391   0.333334561065632   0.520833332125229
   0.807902023290391   0.333334561065632   0.770833332125229
   0.666666710954728   0.192099249192293   0.145833332101433
   0.666666710954728   0.192099249192293   0.395833332101433
   0.666666710954728   0.192099249192293   0.645833332101433
   0.666666710954728   0.192099249192293   0.895833332101433
   0.666666710621236   0.474569874121281   0.020833332125229
   0.666666710621236   0.474569874121281   0.270833332125228
   0.666666710621236   0.474569874121281   0.520833332125229
   0.666666710621236   0.474569874121281   0.770833332125229
   0.807902023419222   0.474569874121281   0.145833332101433
   0.807902023419222   0.474569874121281   0.395833332101433
   0.807902023419222   0.474569874121281   0.645833332101433
   0.807902023419222   0.474569874121281   0.895833332101433
   0.525431398156742   0.192099249192293   0.020833332125229
   0.525431398156742   0.192099249192293   0.270833332125228
   0.525431398156742   0.192099249192293   0.520833332125229
   0.525431398156742   0.192099249192293   0.770833332125229
   0.192098064329263   0.666667894892088   0.229166665659731
   0.192098064329263   0.666667894892088   0.479166665659731
   0.192098064329263   0.666667894892088   0.729166665659731
   0.192098064329263   0.666667894892088   0.979166665659731
   0.474568690949147   0.666667894892088   0.104166665683526
   0.474568690949147   0.666667894892088   0.354166665683526
   0.474568690949147   0.666667894892088   0.604166665683526
   0.474568690949147   0.666667894892088   0.854166665683526
   0.333333378022329   0.525432581836438   0.229166665659731
   0.333333378022329   0.525432581836438   0.479166665659731
   0.333333378022329   0.525432581836438   0.729166665659731
   0.333333378022329   0.525432581836438   0.979166665659731
   0.333333378279993   0.807903207947737   0.104166665683526
   0.333333378279993   0.807903207947737   0.354166665683526
   0.333333378279993   0.807903207947737   0.604166665683526
   0.333333378279993   0.807903207947737   0.854166665683526
   0.474568691077979   0.807903207947737   0.229166665659731
   0.474568691077979   0.807903207947737   0.479166665659731
   0.474568691077979   0.807903207947737   0.729166665659731
   0.474568691077979   0.807903207947737   0.979166665659731
   0.192098065224343   0.525432581836438   0.104166665683526
   0.192098065224343   0.525432581836438   0.354166665683526
   0.192098065224343   0.525432581836438   0.604166665683526
   0.192098065224343   0.525432581836438   0.854166665683526
