 C  H  O 
 1.0000000000000000
    13.3000000000000007    0.0000000000000000    0.0000000000000000
     0.0000000000000000   12.4199999999999999    0.0000000000000000
    -2.3433999999999999    0.0000000000000000   13.5386799999999994
 C   H   O  
  96 128  32
Cartesian
  2.3394308890638609  1.0458611551525492  3.0275636160397204
  3.1388731330661486  4.1508359493937919  3.7417384743059157
  3.1413792815699777  1.0538153498689800  1.7413569437619287
  2.3369154180362997  4.1588353219857614  5.0279563582784004
  2.2986779301363689  1.3334628170379532  0.4887711033904503
  3.1795995143153530  4.4384903468585906  6.2805512948313593
  1.0833249785420833  0.4353629290021043  0.4080550571268834
  4.3949551202841670  3.5403844766615800  6.3612849428731151
  0.3764989423539113  0.1508609606184683  1.7190770254587018
  5.1018056610680116  3.2558776647931129  5.0502651756090762
  0.8373003116498373  1.0501360814253988  2.8784237099069241
  4.6410094625974718  4.1551284461853895  3.8908975678438087
  1.1677308890638607  1.0458611551525492  9.7969036160397209
  1.9671731330661486  4.1508359493937919 10.5110784743059149
  1.9696792815699777  1.0538153498689800  8.5106969437619284
  1.1652154180362997  4.1588353219857614 11.7972963582784001
  1.1269779301363689  1.3334628170379532  7.2581111033904486
  2.0078995143153531  4.4384903468585906 13.0498912948313599
 -0.0883750214579167  0.4353629290021043  7.1773950571268825
  3.2232551202841671  3.5403844766615800 13.1306249428731157
 -0.7952010576460887  0.1508609606184683  8.4884170254587001
  3.9301056610680121  3.2558776647931129 11.8196051756090768
 -0.3343996883501627  1.0501360814253988  9.6477637099069220
  3.4693094625974719  4.1551284461853895 10.6602375678438079
  2.3394308890638609  7.2558611551525489  3.0275636160397204
  3.1388731330661486 10.3608359493937918  3.7417384743059157
  3.1413792815699777  7.2638153498689793  1.7413569437619287
  2.3369154180362997 10.3688353219857632  5.0279563582784004
  2.2986779301363689  7.5434628170379536  0.4887711033904503
  3.1795995143153530 10.6484903468585888  6.2805512948313593
  1.0833249785420833  6.6453629290021041  0.4080550571268834
  4.3949551202841670  9.7503844766615799  6.3612849428731151
  0.3764989423539113  6.3608609606184681  1.7190770254587018
  5.1018056610680116  9.4658776647931120  5.0502651756090762
  0.8373003116498373  7.2601360814253990  2.8784237099069241
  4.6410094625974718 10.3651284461853894  3.8908975678438087
  1.1677308890638607  7.2558611551525489  9.7969036160397209
  1.9671731330661486 10.3608359493937918 10.5110784743059149
  1.9696792815699777  7.2638153498689793  8.5106969437619284
  1.1652154180362997 10.3688353219857632 11.7972963582784001
  1.1269779301363689  7.5434628170379536  7.2581111033904486
  2.0078995143153531 10.6484903468585888 13.0498912948313599
 -0.0883750214579167  6.6453629290021041  7.1773950571268825
  3.2232551202841671  9.7503844766615799 13.1306249428731157
 -0.7952010576460887  6.3608609606184681  8.4884170254587001
  3.9301056610680121  9.4658776647931120 11.8196051756090768
 -0.3343996883501627  7.2601360814253990  9.6477637099069220
  3.4693094625974719 10.3651284461853894 10.6602375678438079
  8.9894308890638612  1.0458611551525492  3.0275636160397204
  9.7888731330661489  4.1508359493937919  3.7417384743059157
  9.7913792815699789  1.0538153498689800  1.7413569437619287
  8.9869154180363005  4.1588353219857614  5.0279563582784004
  8.9486779301363697  1.3334628170379532  0.4887711033904503
  9.8295995143153529  4.4384903468585906  6.2805512948313593
  7.7333249785420826  0.4353629290021043  0.4080550571268834
 11.0449551202841683  3.5403844766615800  6.3612849428731151
  7.0264989423539115  0.1508609606184683  1.7190770254587018
 11.7518056610680119  3.2558776647931129  5.0502651756090762
  7.4873003116498369  1.0501360814253988  2.8784237099069241
 11.2910094625974722  4.1551284461853895  3.8908975678438087
  7.8177308890638617  1.0458611551525492  9.7969036160397209
  8.6171731330661494  4.1508359493937919 10.5110784743059149
  8.6196792815699794  1.0538153498689800  8.5106969437619284
  7.8152154180363009  4.1588353219857614 11.7972963582784001
  7.7769779301363711  1.3334628170379532  7.2581111033904486
  8.6578995143153534  4.4384903468585906 13.0498912948313599
  6.5616249785420822  0.4353629290021043  7.1773950571268825
  9.8732551202841670  3.5403844766615800 13.1306249428731157
  5.8547989423539120  0.1508609606184683  8.4884170254587001
 10.5801056610680124  3.2558776647931129 11.8196051756090768
  6.3156003116498383  1.0501360814253988  9.6477637099069220
 10.1193094625974727  4.1551284461853895 10.6602375678438079
  8.9894308890638612  7.2558611551525489  3.0275636160397204
  9.7888731330661489 10.3608359493937918  3.7417384743059157
  9.7913792815699789  7.2638153498689793  1.7413569437619287
  8.9869154180363005 10.3688353219857632  5.0279563582784004
  8.9486779301363697  7.5434628170379536  0.4887711033904503
  9.8295995143153529 10.6484903468585888  6.2805512948313593
  7.7333249785420826  6.6453629290021041  0.4080550571268834
 11.0449551202841683  9.7503844766615799  6.3612849428731151
  7.0264989423539115  6.3608609606184681  1.7190770254587018
 11.7518056610680119  9.4658776647931120  5.0502651756090762
  7.4873003116498369  7.2601360814253990  2.8784237099069241
 11.2910094625974722 10.3651284461853894  3.8908975678438087
  7.8177308890638617  7.2558611551525489  9.7969036160397209
  8.6171731330661494 10.3608359493937918 10.5110784743059149
  8.6196792815699794  7.2638153498689793  8.5106969437619284
  7.8152154180363009 10.3688353219857632 11.7972963582784001
  7.7769779301363711  7.5434628170379536  7.2581111033904486
  8.6578995143153534 10.6484903468585888 13.0498912948313599
  6.5616249785420822  6.6453629290021041  7.1773950571268825
  9.8732551202841670  9.7503844766615799 13.1306249428731157
  5.8547989423539120  6.3608609606184681  8.4884170254587001
 10.5801056610680124  9.4658776647931120 11.8196051756090768
  6.3156003116498383  7.2601360814253990  9.6477637099069220
 10.1193094625974727 10.3651284461853894 10.6602375678438079
  3.9608916410638026  1.7802794344424837  1.8368382846235154
  1.5174051317234294  4.8852981553279511  4.9324580090227190
  3.6038920223527970  0.0558225264689993  1.6721458913648826
  1.8743858045228199  3.1608504113718099  5.0971724863090007
  1.9093220291043651  2.3659838603368062  0.5462043513489488
  3.5689229529853725  5.4710227973335401  6.2231366377723862
  1.7147699902738724  1.2349637988458111  6.3361909653225910
  3.7635117889290681  4.3399572394564254  0.4331296522027268
  0.5754470955745442  5.3021011509994400  1.9571201107926646
  4.9028663807013837  2.1971134720512859  4.8122545623545294
  5.9459450597270429  0.2448857670769596  1.5532399952010481
 -0.4676465825996566  3.3499178367659672  5.2161088029917533
  0.5543185721942908  2.0948336262835761  2.6517975742206299
  4.9239786227408544  5.1998286641673701  4.1175332831491618
  0.3711088463326758  0.7690452607815649  3.8322153209007994
  5.1072200679799629  3.8740327590483137  2.9371001553921365
  2.7891916410638027  1.7802794344424837  8.6061782846235158
  0.3457051317234299  4.8852981553279511 11.7017980090227187
  2.4321920223527975  0.0558225264689993  8.4414858913648807
  0.7026858045228196  3.1608504113718099 11.8665124863089986
  0.7376220291043648  2.3659838603368062  7.3155443513489473
  2.3972229529853735  5.4710227973335401 12.9924766377723859
  0.5430699902738723  1.2349637988458111 13.1055309653225898
  2.5918117889290677  4.3399572394564254  7.2024696522027254
 -0.5962529044254556  5.3021011509994400  8.7264601107926634
  3.7311663807013837  2.1971134720512859 11.5815945623545300
  4.7742450597270434  0.2448857670769596  8.3225799952010462
 -1.6393465825996565  3.3499178367659672 11.9854488029917530
 -0.6173814278057093  2.0948336262835761  9.4211375742206300
  3.7522786227408544  5.1998286641673701 10.8868732831491588
 -0.8005911536673241  0.7690452607815649 10.6015553209007969
  3.9355200679799629  3.8740327590483137  9.7064401553921353
  3.9608916410638026  7.9902794344424830  1.8368382846235154
  1.5174051317234294 11.0952981553279528  4.9324580090227190
  3.6038920223527970  6.2658225264689982  1.6721458913648826
  1.8743858045228199  9.3708504113718103  5.0971724863090007
  1.9093220291043651  8.5759838603368053  0.5462043513489488
  3.5689229529853725 11.6810227973335383  6.2231366377723862
  1.7147699902738724  7.4449637988458104  6.3361909653225910
  3.7635117889290681 10.5499572394564254  0.4331296522027268
  0.5754470955745442 11.5121011509994400  1.9571201107926646
  4.9028663807013837  8.4071134720512859  4.8122545623545294
  5.9459450597270429  6.4548857670769593  1.5532399952010481
 -0.4676465825996566  9.5599178367659672  5.2161088029917533
  0.5543185721942908  8.3048336262835765  2.6517975742206299
  4.9239786227408544 11.4098286641673710  4.1175332831491618
  0.3711088463326758  6.9790452607815636  3.8322153209007994
  5.1072200679799629 10.0840327590483145  2.9371001553921365
  2.7891916410638027  7.9902794344424830  8.6061782846235158
  0.3457051317234299 11.0952981553279528 11.7017980090227187
  2.4321920223527975  6.2658225264689982  8.4414858913648807
  0.7026858045228196  9.3708504113718103 11.8665124863089986
  0.7376220291043648  8.5759838603368053  7.3155443513489473
  2.3972229529853735 11.6810227973335383 12.9924766377723859
  0.5430699902738723  7.4449637988458104 13.1055309653225898
  2.5918117889290677 10.5499572394564254  7.2024696522027254
 -0.5962529044254556 11.5121011509994400  8.7264601107926634
  3.7311663807013837  8.4071134720512859 11.5815945623545300
  4.7742450597270434  6.4548857670769593  8.3225799952010462
 -1.6393465825996565  9.5599178367659672 11.9854488029917530
 -0.6173814278057093  8.3048336262835765  9.4211375742206300
  3.7522786227408544 11.4098286641673710 10.8868732831491588
 -0.8005911536673241  6.9790452607815636 10.6015553209007969
  3.9355200679799629 10.0840327590483145  9.7064401553921353
 10.6108916410638017  1.7802794344424837  1.8368382846235154
  8.1674051317234291  4.8852981553279511  4.9324580090227190
 10.2538920223527974  0.0558225264689993  1.6721458913648826
  8.5243858045228205  3.1608504113718099  5.0971724863090007
  8.5593220291043650  2.3659838603368062  0.5462043513489488
 10.2189229529853733  5.4710227973335401  6.2231366377723862
  8.3647699902738726  1.2349637988458111  6.3361909653225910
 10.4135117889290676  4.3399572394564254  0.4331296522027268
  7.2254470955745447  5.3021011509994400  1.9571201107926646
 11.5528663807013849  2.1971134720512859  4.8122545623545294
 12.5959450597270433  0.2448857670769596  1.5532399952010481
  6.1823534174003436  3.3499178367659672  5.2161088029917533
  7.2043185721942908  2.0948336262835761  2.6517975742206299
 11.5739786227408548  5.1998286641673701  4.1175332831491618
  7.0211088463326767  0.7690452607815649  3.8322153209007994
 11.7572200679799632  3.8740327590483137  2.9371001553921365
  9.4391916410638039  1.7802794344424837  8.6061782846235158
  6.9957051317234304  4.8852981553279511 11.7017980090227187
  9.0821920223527979  0.0558225264689993  8.4414858913648807
  7.3526858045228201  3.1608504113718099 11.8665124863089986
  7.3876220291043655  2.3659838603368062  7.3155443513489473
  9.0472229529853738  5.4710227973335401 12.9924766377723859
  7.1930699902738731  1.2349637988458111 13.1055309653225898
  9.2418117889290681  4.3399572394564254  7.2024696522027254
  6.0537470955745460  5.3021011509994400  8.7264601107926634
 10.3811663807013836  2.1971134720512859 11.5815945623545300
 11.4242450597270437  0.2448857670769596  8.3225799952010462
  5.0106534174003441  3.3499178367659672 11.9854488029917530
  6.0326185721942913  2.0948336262835761  9.4211375742206300
 10.4022786227408552  5.1998286641673701 10.8868732831491588
  5.8494088463326772  0.7690452607815649 10.6015553209007969
 10.5855200679799637  3.8740327590483137  9.7064401553921353
 10.6108916410638017  7.9902794344424830  1.8368382846235154
  8.1674051317234291 11.0952981553279528  4.9324580090227190
 10.2538920223527974  6.2658225264689982  1.6721458913648826
  8.5243858045228205  9.3708504113718103  5.0971724863090007
  8.5593220291043650  8.5759838603368053  0.5462043513489488
 10.2189229529853733 11.6810227973335383  6.2231366377723862
  8.3647699902738726  7.4449637988458104  6.3361909653225910
 10.4135117889290676 10.5499572394564254  0.4331296522027268
  7.2254470955745447 11.5121011509994400  1.9571201107926646
 11.5528663807013849  8.4071134720512859  4.8122545623545294
 12.5959450597270433  6.4548857670769593  1.5532399952010481
  6.1823534174003436  9.5599178367659672  5.2161088029917533
  7.2043185721942908  8.3048336262835765  2.6517975742206299
 11.5739786227408548 11.4098286641673710  4.1175332831491618
  7.0211088463326767  6.9790452607815636  3.8322153209007994
 11.7572200679799632 10.0840327590483145  2.9371001553921365
  9.4391916410638039  7.9902794344424830  8.6061782846235158
  6.9957051317234304 11.0952981553279528 11.7017980090227187
  9.0821920223527979  6.2658225264689982  8.4414858913648807
  7.3526858045228201  9.3708504113718103 11.8665124863089986
  7.3876220291043655  8.5759838603368053  7.3155443513489473
  9.0472229529853738 11.6810227973335383 12.9924766377723859
  7.1930699902738731  7.4449637988458104 13.1055309653225898
  9.2418117889290681 10.5499572394564254  7.2024696522027254
  6.0537470955745460 11.5121011509994400  8.7264601107926634
 10.3811663807013836  8.4071134720512859 11.5815945623545300
 11.4242450597270437  6.4548857670769593  8.3225799952010462
  5.0106534174003441  9.5599178367659672 11.9854488029917530
  6.0326185721942913  8.3048336262835765  9.4211375742206300
 10.4022786227408552 11.4098286641673710 10.8868732831491588
  5.8494088463326772  6.9790452607815636 10.6015553209007969
 10.5855200679799637 10.0840327590483145  9.7064401553921353
  2.8974455131565855  1.0271128973609058  4.1224546242754387
  2.5808594407381258  4.1320236309490239  2.6468326153416917
 -0.4754105240503514  6.1541774735310000  6.1212611957589864
  5.9536438521067883  3.0491585325824211  0.6480773120444283
  1.7257455131565846  1.0271128973609058 10.8917946242754375
  1.4091594407381258  4.1320236309490239  9.4161726153416900
 -1.6471105240503514  6.1541774735310000 12.8906011957589861
  4.7819438521067879  3.0491585325824211  7.4174173120444271
  2.8974455131565855  7.2371128973609045  4.1224546242754387
  2.5808594407381258 10.3420236309490239  2.6468326153416917
 -0.4754105240503514 12.3641774735310008  6.1212611957589864
  5.9536438521067883  9.2591585325824202  0.6480773120444283
  1.7257455131565846  7.2371128973609045 10.8917946242754375
  1.4091594407381258 10.3420236309490239  9.4161726153416900
 -1.6471105240503514 12.3641774735310008 12.8906011957589861
  4.7819438521067879  9.2591585325824202  7.4174173120444271
  9.5474455131565854  1.0271128973609058  4.1224546242754387
  9.2308594407381257  4.1320236309490239  2.6468326153416917
  6.1745894759496496  6.1541774735310000  6.1212611957589864
 12.6036438521067886  3.0491585325824211  0.6480773120444283
  8.3757455131565859  1.0271128973609058 10.8917946242754375
  8.0591594407381262  4.1320236309490239  9.4161726153416900
  5.0028894759496492  6.1541774735310000 12.8906011957589861
 11.4319438521067891  3.0491585325824211  7.4174173120444271
  9.5474455131565854  7.2371128973609045  4.1224546242754387
  9.2308594407381257 10.3420236309490239  2.6468326153416917
  6.1745894759496496 12.3641774735310008  6.1212611957589864
 12.6036438521067886  9.2591585325824202  0.6480773120444283
  8.3757455131565859  7.2371128973609045 10.8917946242754375
  8.0591594407381262 10.3420236309490239  9.4161726153416900
  5.0028894759496492 12.3641774735310008 12.8906011957589861
 11.4319438521067891  9.2591585325824202  7.4174173120444271
