 C  N  H 
 1.0000000000000000
    15.3088237656202999    0.0000000000000000   -0.0320206831570840
     0.0000000000000000   10.7423688332446421    0.0000000000000000
    -9.6130686782934660    0.0000000000000000   17.4082272797738113
 C   N   H  
  96  64 128
Cartesian
  0.3384675806150107  1.1982674805820239  1.5497967702422464
  7.9928794559175858  1.1982674420613937  1.5337864112469943
  0.3384675738176035  6.5694518878391950  1.5497967720826704
  7.9928794681500950  6.5694518865124758  1.5337864199645217
 -4.4680667618919720  1.1982674719681299 10.2539103986230824
  3.1863451142192178  1.1982674499014645 10.2379000582186226
 -4.4680667662804900  6.5694518851281236 10.2539103985533337
  3.1863451071750801  6.5694518503480950 10.2379000538284615
  2.5094097502345885  4.1729169661214858  7.1383066836175377
 10.1638216418409595  4.1729169791426726  7.1222963314061802
  2.5094097599565872  9.5441013873742673  7.1383066715005530
 10.1638216425169379  9.5441013976081432  7.1222963330520637
 -2.2971245694525106  4.1729169973170706 15.8424203212173413
  5.3572872994377523  4.1729169878422212 15.8264099802690037
 -2.2971245714968678  9.5441013983127618 15.8424203094939280
  5.3572872959544009  9.5441014131697788 15.8264099921301646
  4.9126783297988332  3.8838595415589663  2.7862470522709053
 12.5670902020967183  3.8838595277608277  2.7702367309697804
  4.9126783406916692  9.2550439520419854  2.7862470415073415
 12.5670902093550705  9.2550439390013750  2.7702367288252536
  0.1061439902869716  3.8838595459934075 11.4903606957501303
  7.7605558726004205  3.8838595346372138 11.4743503525633841
  0.1061440017015787  9.2550439541470624 11.4903606882009104
  7.7605558705855175  9.2550439576132373 11.4743503502202540
 -2.0648005331445209  1.4873247516630037  5.9018558486532822
  5.5896113252199680  1.4873247914671828  5.8858455146037594
 -2.0648005391789055  6.8585091712843225  5.9018558579236009
  5.5896113311975189  6.8585091981310269  5.8858455146633020
 -6.8713348750802661  1.4873247497050170 14.6059694993586238
  0.7830770043146122  1.4873247662795412 14.5899591558098276
 -6.8713348748128782  6.8585091610765305 14.6059695003132717
  0.7830770046920801  6.8585091899956536 14.5899591510378261
  0.9416378854632251  3.0157337384056864  2.5670979850887430
  8.5960497780421097  3.0157337473107595  2.5510876207367086
  0.9416378886604965  8.3869181776726975  2.5670980029990469
  8.5960497774111388  8.3869181728569249  2.5510876344137996
 -3.8648964382446951  3.0157337385334215 11.2712116113845635
  3.7895154364736672  3.0157337388499093 11.2552012635495284
 -3.8648964368327836  8.3869181862329025 11.2712116476185784
  3.7895154425653486  8.3869181687458489 11.2552012653150086
  1.9062394700320235  2.3554507256304356  6.1210053882227466
  9.5606513608424883  2.3554507448248820  6.1049950688727748
  1.9062394760067165  7.7266351603238208  6.1210054000254095
  9.5606513590745976  7.7266351495549381  6.1049950572965965
 -2.9002948683977228  2.3554507275040453 14.8251190354075568
  4.7541170244085196  2.3554507296528309 14.8091086958855769
 -2.9002948617043991  7.7266351608658512 14.8251190399651946
  4.7541170179282153  7.7266351326734162 14.8091086954037774
  4.3095078362984189  0.3301417687816210  1.7689461394798469
 11.9639197070573413  0.3301417824448784  1.7529358138314619
  4.3095078264372360  5.7013262083243541  1.7689461304033318
 11.9639197051824535  5.7013261853085977  1.7529358370770576
 -0.4970265199842771  0.3301417783058545 10.4730597834851142
  7.1573853696229195  0.3301417700568732 10.4570494607438498
 -0.4970265242552399  5.7013262108529679 10.4730597756295669
  7.1573853665455056  5.7013261769782302 10.4570494774533689
 -1.4616301376607157  5.0410425598879183  6.9191568204008886
  6.1927817447611107  5.0410425595104273  6.9031464690818938
 -1.4616301419192150 10.4122269942474865  6.9191568122860385
  6.1927817439865214 10.4122269913436387  6.9031464522247674
 -6.2681644871679376  5.0410425497793145 15.6232704912066325
  1.3862474062326688  5.0410425461546771 15.6072601116023755
 -6.2681644852396428 10.4122270002865278 15.6232704451168214
  1.3862473975487621 10.4122269748596370 15.6072601171863052
  1.6503475584758462  2.9735960657293115  1.3890707066061532
  9.3047594143358907  2.9735960774648911  1.3730603913275963
  1.6503475441813853  8.3447804670353332  1.3890707104296698
  9.3047594096502610  8.3447804716834941  1.3730603793092060
 -3.1561867938466879  2.9735960558262695 10.0931843752557029
  4.4982250799883294  2.9735960612875965 10.0771740198939384
 -3.1561867933853094  8.3447804647901496 10.0931843735732016
  4.4982250619563118  8.3447804632891796 10.0771740282478532
  1.1975298521893512  2.3975882189014164  7.2990327677607567
  8.8519417461844956  2.3975882126684325  7.2830224273002662
  1.1975298456635517  7.7687726309798286  7.2990327761010976
  8.8519417502502673  7.7687726378826021  7.2830224276253306
 -3.6090044744936458  2.3975882192819267 16.0031464006670454
  4.0454074028294604  2.3975882010973519 15.9871360748978582
 -3.6090044934671415  7.7687726243869539 16.0031464128505263
  4.0454074199814736  7.7687726274896436 15.9871360645201381
  3.6007985962226048  0.2880040206444780  2.9469736907823560
 11.2552105038695736  0.2880040213717890  2.9309633285754595
  3.6007986185424938  5.6591884156932943  2.9469736787423289
 11.2552105090618664  5.6591884479441097  2.9309633179034456
 -1.2057357237651656  0.2880040007707160 11.6510873012598744
  6.4486761695564665  0.2880040121888409 11.6350769660935249
 -1.2057357106185917  5.6591884055937642 11.6510872971131825
  6.4486761760467148  5.6591884309353668 11.6350769555155686
 -0.7529208660252047  5.0831801700586974  5.7411292501530369
  6.9014909968509794  5.0831801817740256  5.7251189088464312
 -0.7529208391390227 10.4543645614421443  5.7411292419789044
  6.9014910025972336 10.4543645796715143  5.7251189173555224
 -5.5594551772058987  5.0831801580598341 14.4452428657375780
  2.0949566485082429  5.0831801767637934 14.4292325519107987
 -5.5594551873594265 10.4543645670777483 14.4452428802269157
  2.0949566738210281 10.4543645779602876 14.4292325363697262
  1.2548296515556006  1.8111154809639221  0.7491139135704465
  8.9092415498219175  1.8111154740727926  0.7331035327947802
  1.2548296653614908  7.1822999003646393  0.7491138952618340
  8.9092415370517539  7.1822999010306221  0.7331035639705500
 -3.5517046774142349  1.8111154869448605  9.4532275492343079
  4.1027072040384587  1.8111154889646173  9.4372172020374361
 -3.5517046651376818  7.1822999012216124  9.4532275293900021
  4.1027072130751883  7.1822999158786391  9.4372171975420081
  1.5930478014378613  3.5600688134284457  7.9389896803691711
  9.2474596799069335  3.5600688011905186  7.9229793407627378
  1.5930478050933610  8.9312532149843253  7.9389896603782555
  9.2474596761998242  8.9312532171164047  7.9229793450759320
 -3.2134865557888603  3.5600688085270278 16.6431033466961402
  4.4409253437470406  3.5600688020978914 16.6270929810132841
 -3.2134865433450082  8.9312532221068501 16.6431033231397976
  4.4409253389257373  8.9312532176888091 16.6270929889312846
  3.9963164640982551  4.4967075849054323  3.5869302530132283
 11.6507283570962201  4.4967075806025614  3.5709199089404104
  3.9963164677329948  9.8678920050393923  3.5869302442814357
 11.6507283524525107  9.8678919984920004  3.5709199123721072
 -0.8102178820859789  4.4967075839473987 12.2910439013464341
  6.8441940087759185  4.4967075866389346 12.2750335539146320
 -0.8102178824774010  9.8678920084763959 12.2910438931720396
  6.8441940118216866  9.8678920028019892 12.2750335493427851
 -1.1484386682534382  0.8744766716240582  5.1011725674375334
  6.5059732425183601  0.8744766571670480  5.0851621908875480
 -1.1484386541600033  6.2456610799892438  5.1011725530046332
  6.5059732371296608  6.2456610650516451  5.0851622082811874
 -5.9549730038765274  0.8744766675674236 13.8052862051272900
  1.6994388871702919  0.8744766621222633 13.7892758490242429
 -5.9549730005493338  6.2456610858615882 13.8052862007345940
  1.6994388947361379  6.2456610715350100 13.7892758431405866
  0.1193066841861830  1.8986394870514343  2.6647963415098044
  7.7737185626040857  1.8986394978419390  2.6487860315196521
  0.1193066829927397  7.2698239013539387  2.6647963420628025
  7.7737185648173055  7.2698239012991968  2.6487860115818780
 -4.6872276588316666  1.8986394993652205 11.3689099943593934
  2.9671842277703968  1.8986394927763475 11.3528996533767135
 -4.6872276617019830  7.2698239153874233 11.3689099961503874
  2.9671842275670741  7.2698239111142140 11.3528996571241230
  2.7285707844579590  3.4725450034309588  6.0233070402937710
 10.3829826572901762  3.4725449998029849  6.0072967005674380
  2.7285707765527283  8.8437294213180770  6.0233070536493916
 10.3829826591752408  8.8437294179635817  6.0072967001591069
 -2.0779635577991780  3.4725449976542468 14.7274206740539331
  5.5764483193420267  3.4725449973301736 14.7114103308023090
 -2.0779635624738182  8.8437294191961904 14.7274206889380199
  5.5764483229487212  8.8437294097623891 14.7114103183631819
  5.1318387877244742  4.5842318482919717  1.6712476769788882
 12.7862506708816532  4.5842318647878972  1.6552373067118047
  5.1318387811333759  9.9554162667584158  1.6712476860710710
 12.7862506715755586  9.9554162762216194  1.6552373135922476
  0.3253044520496646  4.5842318533455924 10.3753613123017736
  7.9797163270839082  4.5842318588825961 10.3593509635776027
  0.3253044467929626  9.9554162730802673 10.3753613186940150
  7.9797163271741764  9.9554162706430702 10.3593509694857389
 -2.2839612989987006  0.7869524342870333  7.0168552453008051
  5.3704505896437409  0.7869524311996194  7.0008449083683448
 -2.2839612974523642  6.1581368567913612  7.0168552389748822
  5.3704505894688692  6.1581368552414082  7.0008448998944992
 -7.0904956339330543  0.7869524372703897 15.7209688774636707
  0.5639162493260685  0.7869524416506034 15.7049585416047055
 -7.0904956367825305  6.1581368602962367 15.7209688721889673
  0.5639162483561172  6.1581368559243206 15.7049585476149360
 -3.1704976281134050  1.4492371280911400  8.5592556370617867
  4.4839142589702394  1.4492371286776824  8.5432453024659001
 -3.1704976327222432  6.8204215463949058  8.5592556433814515
  4.4839142578782063  6.8204215437696885  8.5432453042313163
 -7.9770319636648717  1.4492371295361348 17.2633692791748032
 -0.3226200832907395  1.4492371322787423 17.2473589550224737
 -7.9770319675379469  6.8204215475650214 17.2633692870970386
 -0.3226200785648380  6.8204215450760080 17.2473589426533280
  6.0183750500968687  3.9219470840417676  0.1288480877098784
 13.6727869227699941  3.9219470906396681  0.1128377580963066
  6.0183750453682023  9.2931315035158999  0.1288480992883232
 13.6727869241633062  9.2931315074552039  0.1128377539534107
  1.2118407071877981  3.9219470865594395  8.8329617394441922
  8.8662525857553298  3.9219470891956063  8.8169513970718860
  1.2118407026081508  9.2931315077447483  8.8329617497231041
  8.8662525871998881  9.2931315051814849  8.8169513949026630
  3.6151096664375491  4.1348296289958926  4.4809021714378385
 11.2695215430849434  4.1348296251857599  4.4648918322950681
  3.6151096636632034  9.5060140440857168  4.4809021769429158
 11.2695215452756088  9.5060140434448321  4.4648918300338769
 -1.1914246689223262  4.1348296303872294 13.1850158102027937
  6.4629872066372442  4.1348296276659475 13.1690054697962573
 -1.1914246707915348  9.5060140445258519 13.1850158163585292
  6.4629872061222713  9.5060140440887064 13.1690054715853968
 -0.7672314633998689  1.2363548718716013  4.2072006599130134
  6.8871804160621872  1.2363548700404110  4.1911903349744160
 -0.7672314662886441  6.6075392878870369  4.2072006668901958
  6.8871804183563636  6.6075392896332144  4.1911903284907774
 -5.5737658023122574  1.2363548719247188 12.9113143022235075
  2.0806460816706420  1.2363548724645710 12.8953039683389363
 -5.5737658044755412  6.6075392882610595 12.9113143025186101
  2.0806460808173539  6.6075392903173205 12.8953039707003754
 -0.1379655382791481  0.2630516317538147  1.3061553035783684
  7.5164463478471273  0.2630516457749772  1.2901449639334130
 -0.1379655366559669  5.6342360517735495  1.3061553038963836
  7.5164463428216894  5.6342360521230113  1.2901449619515075
 -4.9444998762167307  0.2630516294909011 10.0102689440802006
  2.7099120102783831  0.2630516459102620  9.9942586048191764
 -4.9444998766949082  5.6342360429787846 10.0102689433008862
  2.7099120130071488  5.6342360689367910  9.9942586062070493
  2.9858431628028153  5.1081325905123380  7.3819485303350509
 10.6402550453734985  5.1081325839854603  7.3659381890846189
  2.9858431607663047 10.4793170030042244  7.3819485297941512
 10.6402550448719850 10.4793170001296296  7.3659381885642858
 -1.8206911832235542  5.1081325749248387 16.0860621672306650
  5.8337207085421001  5.1081325845477075 16.0700518293451218
 -1.8206911810932638 10.4793169969852027 16.0860621686027123
  5.8337207088302545 10.4793169996066506 16.0700518287312555
  5.3891115841090160  2.9486435569668958  3.0298877819995478
 13.0435234709199470  2.9486435575433818  3.0138774408453575
  5.3891115814900239  8.3198279779889077  3.0298877814958107
 13.0435234675125660  8.3198279787053782  3.0138774394878602
  0.5825772450022633  2.9486435518635332 11.7340014223335061
  8.2369891293028985  2.9486435585563346 11.7179910805015108
  0.5825772422285297  8.3198279721399775 11.7340014217546518
  8.2369891304536313  8.3198279723774480 11.7179910812028574
 -2.5412336070916126  2.4225408211486794  5.6582149604837859
  5.1131782833266284  2.4225407998624622  5.6422046220460391
 -2.5412336062052798  7.7937252350179769  5.6582149604232006
  5.1131782814254709  7.7937252203820382  5.6422046216187169
 -7.3477679461098440  2.4225408190120583 14.3623285997457302
  0.3066439364579555  2.4225408122881045 14.3463182585806717
 -7.3477679478387508  7.7937252415991942 14.3623285983819944
  0.3066439359896597  7.7937252275606843 14.3463182588321292
  0.9721803292641612  3.7681241327573853  3.3377476563300066
  8.6265922136255124  3.7681241289744523  3.3217373175092204
  0.9721803287649703  9.1393085388931876  3.3377476463198001
  8.6265922132234145  9.1393085420580018  3.3217373124584904
 -3.8343540133096110  3.7681241303262283 12.0418612924956143
  3.8200578735201396  3.7681241348976862 12.0258509603309118
 -3.8343540148926500  9.1393085288906040 12.0418612725696264
  3.8200578733199246  9.1393085458244556 12.0258509561119453
  1.8756974323981037  1.6030600409862996  5.3503560113380848
  9.5301093119198121  1.6030600322531008  5.3343456574603039
  1.8756974310432524  6.9742444487008974  5.3503560026998116
  9.5301093124733072  6.9742444542623323  5.3343456632319342
 -2.9308369083059218  1.6030600381418558 14.0544696464225183
  4.7235749715529574  1.6030600428524593 14.0384593059863541
 -2.9308369088398734  6.9742444475278722 14.0544696410929983
  4.7235749718727487  6.9742444662655148 14.0384593106315592
  4.2789651630450747  1.0825317882407923  0.9982960549716320
 11.9333770459924011  1.0825317803126904  0.9822857159632546
  4.2789651644720381  6.4537161945184582  0.9982960640287448
 11.9333770450029952  6.4537162018706393  0.9822857087866265
 -0.5275691723701046  1.0825317819842359  9.7024097027931457
  7.1268427065962587  1.0825317868117292  9.6863993507197872
 -0.5275691721799330  6.4537161920214112  9.7024097080256642
  7.1268427065630613  6.4537162085867044  9.6863993445187333
 -1.4310869298961013  4.2886526711035868  7.6898070272247656
  6.2233249543782403  4.2886526682326549  7.6737966914692626
 -1.4310869303150868  9.6598370809885576  7.6898070323504513
  6.2233249549887182  9.6598370780204093  7.6737966990233195
 -6.2376212696140518  4.2886526790525341 16.3939206565072340
  1.4167906164626047  4.2886526772757545 16.3779103255121257
 -6.2376212678163787  9.6598370764928152 16.3939206785120497
  1.4167906164299440  9.6598370880646964 16.3779103288764318
  2.3793810036839531  3.6452970119694332  0.9686761004196742
 10.0337928959634493  3.6452970101782141  0.9526657573200572
  2.3793810117113594  9.0164814352295366  0.9686760964393811
 10.0337929004817976  9.0164814337052768  0.9526657550035114
 -2.4271533331668182  3.6452970178383453  9.6727897338872122
  5.2272585567350580  3.6452970154109603  9.6567793957601626
 -2.4271533329844406  9.0164814366947894  9.6727897319797460
  5.2272585651433250  9.0164814382752851  9.6567793917115825
  0.4684962761252267  1.7258872739076807  7.7194276065116867
  8.1229081546145867  1.7258872780758880  7.7034172629795012
  0.4684962795090914  7.0970716944910812  7.7194276038258334
  8.1229081518289163  7.0970716910779910  7.7034172648742825
 -4.3380380692330167  1.7258872725566672 16.4235412481422038
  3.3163738185492750  1.7258872848907791 16.4075308986142971
 -4.3380380598066450  7.0970716959061706 16.4235412436138013
  3.3163738108404357  7.0970716966469602 16.4075309018536757
  2.8717652143719956  0.9597047540427081  3.3673686725902265
 10.5261770883054737  0.9597047556777791  3.3513583330169348
  2.8717652030823038  6.3308891811000718  3.3673686788805761
 10.5261770886602477  6.3308891687286533  3.3513583319353204
 -1.9347691311978430  0.9597047642149580 12.0714823218609357
  5.7196427465371196  0.9597047592150765 12.0554719757331021
 -1.9347691387020320  6.3308891871837050 12.0714823249432790
  5.7196427447435161  6.3308891761840913 12.0554719768456753
 -0.0238872903471536  4.4114793749476853  5.3207341626660085
  7.6305246032174709  4.4114793705642654  5.3047238187888315
 -0.0238873045472233  9.7826638028351454  5.3207341693305539
  7.6305245985719292  9.7826637931459075  5.3047238209853420
 -4.8304216413808012  4.4114793828607430 14.0248478089519022
  2.8239902670817822  4.4114793728067747 14.0088374600136873
 -4.8304216381802050  9.7826638000582591 14.0248478085185795
  2.8239902561163794  9.7826637967813834 14.0088374652647367
