 C  H  O 
        1.0000000000
  26.512302823553910  -0.000013934169858   0.000000415770228
  -0.000006246744613  11.769177886222275  -0.000002437164284
   0.000000388587942  -0.000004783598096  23.321526964490271
  192  384  192
 Direct
   0.168524742237176   0.231450004334163   0.052396133142224
   0.668524742237176   0.231450004334163   0.052396133142224
   0.168524742237176   0.564783337667496   0.052396133142224
   0.668524742237176   0.564783337667496   0.052396133142224
   0.168524742237176   0.898116671000829   0.052396133142224
   0.668524742237176   0.898116671000829   0.052396133142224
   0.168524742237176   0.231450004334163   0.302396133142224
   0.668524742237176   0.231450004334163   0.302396133142224
   0.168524742237176   0.564783337667496   0.302396133142224
   0.668524742237176   0.564783337667496   0.302396133142224
   0.168524742237176   0.898116671000829   0.302396133142224
   0.668524742237176   0.898116671000829   0.302396133142224
   0.168524742237176   0.231450004334163   0.552396133142224
   0.668524742237176   0.231450004334163   0.552396133142224
   0.168524742237176   0.564783337667496   0.552396133142224
   0.668524742237176   0.564783337667496   0.552396133142224
   0.168524742237176   0.898116671000829   0.552396133142224
   0.668524742237176   0.898116671000829   0.552396133142224
   0.168524742237176   0.231450004334163   0.802396133142224
   0.668524742237176   0.231450004334163   0.802396133142224
   0.168524742237176   0.564783337667496   0.802396133142224
   0.668524742237176   0.564783337667496   0.802396133142224
   0.168524742237176   0.898116671000829   0.802396133142224
   0.668524742237176   0.898116671000829   0.802396133142224
   0.331475086533719   0.101884791909581   0.177396120275620
   0.831475086533719   0.101884791909581   0.177396120275620
   0.331475086533719   0.435218125242914   0.177396120275620
   0.831475086533719   0.435218125242914   0.177396120275620
   0.331475086533719   0.768551458576247   0.177396120275620
   0.831475086533719   0.768551458576247   0.177396120275620
   0.331475086533719   0.101884791909581   0.427396120275620
   0.831475086533719   0.101884791909581   0.427396120275620
   0.331475086533719   0.435218125242914   0.427396120275620
   0.831475086533719   0.435218125242914   0.427396120275620
   0.331475086533719   0.768551458576247   0.427396120275620
   0.831475086533719   0.768551458576247   0.427396120275620
   0.331475086533719   0.101884791909581   0.677396120275620
   0.831475086533719   0.101884791909581   0.677396120275620
   0.331475086533719   0.435218125242914   0.677396120275620
   0.831475086533719   0.435218125242914   0.677396120275620
   0.331475086533719   0.768551458576247   0.677396120275620
   0.831475086533719   0.768551458576247   0.677396120275620
   0.331475086533719   0.101884791909581   0.927396120275620
   0.831475086533719   0.101884791909581   0.927396120275620
   0.331475086533719   0.435218125242914   0.927396120275620
   0.831475086533719   0.435218125242914   0.927396120275620
   0.331475086533719   0.768551458576247   0.927396120275620
   0.831475086533719   0.768551458576247   0.927396120275620
   0.418524874322234   0.268551787913921   0.052396188455193
   0.918524874322234   0.268551787913921   0.052396188455193
   0.418524874322234   0.601885121247254   0.052396188455193
   0.918524874322234   0.601885121247254   0.052396188455193
   0.418524874322234   0.935218454580588   0.052396188455193
   0.918524874322234   0.935218454580588   0.052396188455193
   0.418524874322234   0.268551787913921   0.302396188455193
   0.918524874322234   0.268551787913921   0.302396188455193
   0.418524874322234   0.601885121247254   0.302396188455193
   0.918524874322234   0.601885121247254   0.302396188455193
   0.418524874322234   0.935218454580588   0.302396188455193
   0.918524874322234   0.935218454580588   0.302396188455193
   0.418524874322234   0.268551787913921   0.552396188455193
   0.918524874322234   0.268551787913921   0.552396188455193
   0.418524874322234   0.601885121247254   0.552396188455193
   0.918524874322234   0.601885121247254   0.552396188455193
   0.418524874322234   0.935218454580588   0.552396188455193
   0.918524874322234   0.935218454580588   0.552396188455193
   0.418524874322234   0.268551787913921   0.802396188455193
   0.918524874322234   0.268551787913921   0.802396188455193
   0.418524874322234   0.601885121247254   0.802396188455193
   0.918524874322234   0.601885121247254   0.802396188455193
   0.418524874322234   0.935218454580588   0.802396188455193
   0.918524874322234   0.935218454580588   0.802396188455193
   0.081474910528726   0.064783121233542   0.177396204870472
   0.581474910528726   0.064783121233542   0.177396204870472
   0.081474910528726   0.398116454566876   0.177396204870472
   0.581474910528726   0.398116454566876   0.177396204870472
   0.081474910528726   0.731449787900209   0.177396204870472
   0.581474910528726   0.731449787900209   0.177396204870472
   0.081474910528726   0.064783121233542   0.427396204870472
   0.581474910528726   0.064783121233542   0.427396204870472
   0.081474910528726   0.398116454566876   0.427396204870472
   0.581474910528726   0.398116454566876   0.427396204870472
   0.081474910528726   0.731449787900209   0.427396204870472
   0.581474910528726   0.731449787900209   0.427396204870472
   0.081474910528726   0.064783121233542   0.677396204870472
   0.581474910528726   0.064783121233542   0.677396204870472
   0.081474910528726   0.398116454566876   0.677396204870472
   0.581474910528726   0.398116454566876   0.677396204870472
   0.081474910528726   0.731449787900209   0.677396204870472
   0.581474910528726   0.731449787900209   0.677396204870472
   0.081474910528726   0.064783121233542   0.927396204870472
   0.581474910528726   0.064783121233542   0.927396204870472
   0.081474910528726   0.398116454566876   0.927396204870472
   0.581474910528726   0.398116454566876   0.927396204870472
   0.081474910528726   0.731449787900209   0.927396204870472
   0.581474910528726   0.731449787900209   0.927396204870472
   0.205746862528734   0.205337675314805   0.099410038642360
   0.705746862528734   0.205337675314805   0.099410038642360
   0.205746862528734   0.538671008648139   0.099410038642360
   0.705746862528734   0.538671008648139   0.099410038642360
   0.205746862528734   0.872004341981472   0.099410038642360
   0.705746862528734   0.872004341981472   0.099410038642360
   0.205746862528734   0.205337675314805   0.349410038642360
   0.705746862528734   0.205337675314805   0.349410038642360
   0.205746862528734   0.538671008648139   0.349410038642360
   0.705746862528734   0.538671008648139   0.349410038642360
   0.205746862528734   0.872004341981472   0.349410038642360
   0.705746862528734   0.872004341981472   0.349410038642360
   0.205746862528734   0.205337675314805   0.599410038642360
   0.705746862528734   0.205337675314805   0.599410038642360
   0.205746862528734   0.538671008648139   0.599410038642360
   0.705746862528734   0.538671008648139   0.599410038642360
   0.205746862528734   0.872004341981472   0.599410038642360
   0.705746862528734   0.872004341981472   0.599410038642360
   0.205746862528734   0.205337675314805   0.849410038642360
   0.705746862528734   0.205337675314805   0.849410038642360
   0.205746862528734   0.538671008648139   0.849410038642360
   0.705746862528734   0.538671008648139   0.849410038642360
   0.205746862528734   0.872004341981472   0.849410038642360
   0.705746862528734   0.872004341981472   0.849410038642360
   0.294252957234091   0.127997146843742   0.224410027539852
   0.794252957234092   0.127997146843742   0.224410027539852
   0.294252957234091   0.461330480177076   0.224410027539852
   0.794252957234092   0.461330480177076   0.224410027539852
   0.294252957234091   0.794663813510409   0.224410027539852
   0.794252957234092   0.794663813510409   0.224410027539852
   0.294252957234091   0.127997146843742   0.474410027539852
   0.794252957234092   0.127997146843742   0.474410027539852
   0.294252957234091   0.461330480177076   0.474410027539852
   0.794252957234092   0.461330480177076   0.474410027539852
   0.294252957234091   0.794663813510409   0.474410027539852
   0.794252957234092   0.794663813510409   0.474410027539852
   0.294252957234091   0.127997146843742   0.724410027539852
   0.794252957234092   0.127997146843742   0.724410027539852
   0.294252957234091   0.461330480177076   0.724410027539852
   0.794252957234092   0.461330480177076   0.724410027539852
   0.294252957234091   0.794663813510409   0.724410027539852
   0.794252957234092   0.794663813510409   0.724410027539852
   0.294252957234091   0.127997146843742   0.974410027539852
   0.794252957234092   0.127997146843742   0.974410027539852
   0.294252957234091   0.461330480177076   0.974410027539852
   0.794252957234092   0.461330480177076   0.974410027539852
   0.294252957234091   0.794663813510409   0.974410027539852
   0.794252957234092   0.794663813510409   0.974410027539852
   0.455746957608818   0.294663980071931   0.099410188813542
   0.955746957608818   0.294663980071931   0.099410188813542
   0.455746957608818   0.627997313405264   0.099410188813542
   0.955746957608818   0.627997313405264   0.099410188813542
   0.455746957608818   0.961330646738598   0.099410188813542
   0.955746957608818   0.961330646738598   0.099410188813542
   0.455746957608818   0.294663980071931   0.349410188813542
   0.955746957608818   0.294663980071931   0.349410188813542
   0.455746957608818   0.627997313405264   0.349410188813542
   0.955746957608818   0.627997313405264   0.349410188813542
   0.455746957608818   0.961330646738598   0.349410188813542
   0.955746957608818   0.961330646738598   0.349410188813542
   0.455746957608818   0.294663980071931   0.599410188813542
   0.955746957608818   0.294663980071931   0.599410188813542
   0.455746957608818   0.627997313405264   0.599410188813542
   0.955746957608818   0.627997313405264   0.599410188813542
   0.455746957608818   0.961330646738598   0.599410188813542
   0.955746957608818   0.961330646738598   0.599410188813542
   0.455746957608818   0.294663980071931   0.849410188813542
   0.955746957608818   0.294663980071931   0.849410188813542
   0.455746957608818   0.627997313405264   0.849410188813542
   0.955746957608818   0.627997313405264   0.849410188813542
   0.455746957608818   0.961330646738598   0.849410188813542
   0.955746957608818   0.961330646738598   0.849410188813542
   0.044252841302809   0.038670861799989   0.224410210220932
   0.544252841302808   0.038670861799989   0.224410210220932
   0.044252841302809   0.372004195133322   0.224410210220932
   0.544252841302808   0.372004195133322   0.224410210220932
   0.044252841302809   0.705337528466655   0.224410210220932
   0.544252841302808   0.705337528466655   0.224410210220932
   0.044252841302809   0.038670861799989   0.474410210220932
   0.544252841302808   0.038670861799989   0.474410210220932
   0.044252841302809   0.372004195133322   0.474410210220932
   0.544252841302808   0.372004195133322   0.474410210220932
   0.044252841302809   0.705337528466655   0.474410210220932
   0.544252841302808   0.705337528466655   0.474410210220932
   0.044252841302809   0.038670861799989   0.724410210220932
   0.544252841302808   0.038670861799989   0.724410210220932
   0.044252841302809   0.372004195133322   0.724410210220932
   0.544252841302808   0.372004195133322   0.724410210220932
   0.044252841302809   0.705337528466655   0.724410210220932
   0.544252841302808   0.705337528466655   0.724410210220932
   0.044252841302809   0.038670861799989   0.974410210220932
   0.544252841302808   0.038670861799989   0.974410210220932
   0.044252841302809   0.372004195133322   0.974410210220932
   0.544252841302808   0.372004195133322   0.974410210220932
   0.044252841302809   0.705337528466655   0.974410210220932
   0.544252841302808   0.705337528466655   0.974410210220932
   0.161774091300197   0.313563700790727   0.230798848979595
   0.661774091300197   0.313563700790727   0.230798848979595
   0.161774091300197   0.646897034124061   0.230798848979595
   0.661774091300197   0.646897034124061   0.230798848979595
   0.161774091300197   0.980230367457394   0.230798848979595
   0.661774091300197   0.980230367457394   0.230798848979595
   0.161774091300197   0.313563700790727   0.480798848979595
   0.661774091300197   0.313563700790727   0.480798848979595
   0.161774091300197   0.646897034124061   0.480798848979595
   0.661774091300197   0.646897034124061   0.480798848979595
   0.161774091300197   0.980230367457394   0.480798848979595
   0.661774091300197   0.980230367457394   0.480798848979595
   0.161774091300197   0.313563700790727   0.730798848979595
   0.661774091300197   0.313563700790727   0.730798848979595
   0.161774091300197   0.646897034124061   0.730798848979595
   0.661774091300197   0.646897034124061   0.730798848979595
   0.161774091300197   0.980230367457394   0.730798848979595
   0.661774091300197   0.980230367457394   0.730798848979595
   0.161774091300197   0.313563700790727   0.980798848979595
   0.661774091300197   0.313563700790727   0.980798848979595
   0.161774091300197   0.646897034124061   0.980798848979595
   0.661774091300197   0.646897034124061   0.980798848979595
   0.161774091300197   0.980230367457394   0.980798848979595
   0.661774091300197   0.980230367457394   0.980798848979595
   0.338225720671107   0.019771291876732   0.105798748045387
   0.838225720671107   0.019771291876732   0.105798748045387
   0.338225720671107   0.353104625210065   0.105798748045387
   0.838225720671107   0.353104625210065   0.105798748045387
   0.338225720671107   0.686437958543399   0.105798748045387
   0.838225720671107   0.686437958543399   0.105798748045387
   0.338225720671107   0.019771291876732   0.355798748045387
   0.838225720671107   0.019771291876732   0.355798748045387
   0.338225720671107   0.353104625210065   0.355798748045387
   0.838225720671107   0.353104625210065   0.355798748045387
   0.338225720671107   0.686437958543399   0.355798748045387
   0.838225720671107   0.686437958543399   0.355798748045387
   0.338225720671107   0.019771291876732   0.605798748045387
   0.838225720671107   0.019771291876732   0.605798748045387
   0.338225720671107   0.353104625210065   0.605798748045387
   0.838225720671107   0.353104625210065   0.605798748045387
   0.338225720671107   0.686437958543399   0.605798748045387
   0.838225720671107   0.686437958543399   0.605798748045387
   0.338225720671107   0.019771291876732   0.855798748045387
   0.838225720671107   0.019771291876732   0.855798748045387
   0.338225720671107   0.353104625210065   0.855798748045387
   0.838225720671107   0.353104625210065   0.855798748045387
   0.338225720671107   0.686437958543399   0.855798748045387
   0.838225720671107   0.686437958543399   0.855798748045387
   0.411774217188903   0.186438084980085   0.230798863643769
   0.911774217188903   0.186438084980085   0.230798863643769
   0.411774217188903   0.519771418313419   0.230798863643769
   0.911774217188903   0.519771418313419   0.230798863643769
   0.411774217188903   0.853104751646752   0.230798863643769
   0.911774217188903   0.853104751646752   0.230798863643769
   0.411774217188903   0.186438084980085   0.480798863643769
   0.911774217188903   0.186438084980085   0.480798863643769
   0.411774217188903   0.519771418313419   0.480798863643769
   0.911774217188903   0.519771418313419   0.480798863643769
   0.411774217188903   0.853104751646752   0.480798863643769
   0.911774217188903   0.853104751646752   0.480798863643769
   0.411774217188903   0.186438084980085   0.730798863643769
   0.911774217188903   0.186438084980085   0.730798863643769
   0.411774217188903   0.519771418313419   0.730798863643769
   0.911774217188903   0.519771418313419   0.730798863643769
   0.411774217188903   0.853104751646752   0.730798863643769
   0.911774217188903   0.853104751646752   0.730798863643769
   0.411774217188903   0.186438084980085   0.980798863643769
   0.911774217188903   0.186438084980085   0.980798863643769
   0.411774217188903   0.519771418313419   0.980798863643769
   0.911774217188903   0.519771418313419   0.980798863643769
   0.411774217188903   0.853104751646752   0.980798863643769
   0.911774217188903   0.853104751646752   0.980798863643769
   0.088225533394387   0.146896687745998   0.105798873505906
   0.588225533394387   0.146896687745998   0.105798873505906
   0.088225533394387   0.480230021079331   0.105798873505906
   0.588225533394387   0.480230021079331   0.105798873505906
   0.088225533394387   0.813563354412664   0.105798873505906
   0.588225533394387   0.813563354412664   0.105798873505906
   0.088225533394387   0.146896687745998   0.355798873505906
   0.588225533394387   0.146896687745998   0.355798873505906
   0.088225533394387   0.480230021079331   0.355798873505906
   0.588225533394387   0.480230021079331   0.355798873505906
   0.088225533394387   0.813563354412664   0.355798873505906
   0.588225533394387   0.813563354412664   0.355798873505906
   0.088225533394387   0.146896687745998   0.605798873505906
   0.588225533394387   0.146896687745998   0.605798873505906
   0.088225533394387   0.480230021079331   0.605798873505906
   0.588225533394387   0.480230021079331   0.605798873505906
   0.088225533394387   0.813563354412664   0.605798873505906
   0.588225533394387   0.813563354412664   0.605798873505906
   0.088225533394387   0.146896687745998   0.855798873505906
   0.588225533394387   0.146896687745998   0.855798873505906
   0.088225533394387   0.480230021079331   0.855798873505906
   0.588225533394387   0.480230021079331   0.855798873505906
   0.088225533394387   0.813563354412664   0.855798873505906
   0.588225533394387   0.813563354412664   0.855798873505906
   0.187249106874384   0.159055334195790   0.133831278704089
   0.687249106874384   0.159055334195790   0.133831278704089
   0.187249106874384   0.492388667529123   0.133831278704089
   0.687249106874384   0.492388667529123   0.133831278704089
   0.187249106874384   0.825722000862457   0.133831278704089
   0.687249106874384   0.825722000862457   0.133831278704089
   0.187249106874384   0.159055334195790   0.383831278704089
   0.687249106874384   0.159055334195790   0.383831278704089
   0.187249106874384   0.492388667529123   0.383831278704089
   0.687249106874384   0.492388667529123   0.383831278704089
   0.187249106874384   0.825722000862457   0.383831278704089
   0.687249106874384   0.825722000862457   0.383831278704089
   0.187249106874384   0.159055334195790   0.633831278704089
   0.687249106874384   0.159055334195790   0.633831278704089
   0.187249106874384   0.492388667529123   0.633831278704089
   0.687249106874384   0.492388667529123   0.633831278704089
   0.187249106874384   0.825722000862457   0.633831278704089
   0.687249106874384   0.825722000862457   0.633831278704089
   0.187249106874384   0.159055334195790   0.883831278704089
   0.687249106874384   0.159055334195790   0.883831278704089
   0.187249106874384   0.492388667529123   0.883831278704089
   0.687249106874384   0.492388667529123   0.883831278704089
   0.187249106874384   0.825722000862457   0.883831278704089
   0.687249106874384   0.825722000862457   0.883831278704089
   0.312750692262080   0.174279546764186   0.008831282881595
   0.812750692262080   0.174279546764186   0.008831282881595
   0.312750692262080   0.507612880097520   0.008831282881595
   0.812750692262080   0.507612880097520   0.008831282881595
   0.312750692262080   0.840946213430853   0.008831282881595
   0.812750692262080   0.840946213430853   0.008831282881595
   0.312750692262080   0.174279546764186   0.258831282881595
   0.812750692262080   0.174279546764186   0.258831282881595
   0.312750692262080   0.507612880097520   0.258831282881595
   0.812750692262080   0.507612880097520   0.258831282881595
   0.312750692262080   0.840946213430853   0.258831282881595
   0.812750692262080   0.840946213430853   0.258831282881595
   0.312750692262080   0.174279546764186   0.508831282881595
   0.812750692262080   0.174279546764186   0.508831282881595
   0.312750692262080   0.507612880097520   0.508831282881595
   0.812750692262080   0.507612880097520   0.508831282881595
   0.312750692262080   0.840946213430853   0.508831282881595
   0.812750692262080   0.840946213430853   0.508831282881595
   0.312750692262080   0.174279546764186   0.758831282881595
   0.812750692262080   0.174279546764186   0.758831282881595
   0.312750692262080   0.507612880097520   0.758831282881595
   0.812750692262080   0.507612880097520   0.758831282881595
   0.312750692262080   0.840946213430853   0.758831282881595
   0.812750692262080   0.840946213430853   0.758831282881595
   0.437249201184692   0.007612657750653   0.133831528455780
   0.937249201184692   0.007612657750653   0.133831528455780
   0.437249201184692   0.340945991083987   0.133831528455780
   0.937249201184692   0.340945991083987   0.133831528455780
   0.437249201184692   0.674279324417320   0.133831528455780
   0.937249201184692   0.674279324417320   0.133831528455780
   0.437249201184692   0.007612657750653   0.383831528455780
   0.937249201184692   0.007612657750653   0.383831528455780
   0.437249201184692   0.340945991083987   0.383831528455780
   0.937249201184692   0.340945991083987   0.383831528455780
   0.437249201184692   0.674279324417320   0.383831528455780
   0.937249201184692   0.674279324417320   0.383831528455780
   0.437249201184692   0.007612657750653   0.633831528455780
   0.937249201184692   0.007612657750653   0.633831528455780
   0.437249201184692   0.340945991083987   0.633831528455780
   0.937249201184692   0.340945991083987   0.633831528455780
   0.437249201184692   0.674279324417320   0.633831528455780
   0.937249201184692   0.674279324417320   0.633831528455780
   0.437249201184692   0.007612657750653   0.883831528455780
   0.937249201184692   0.007612657750653   0.883831528455780
   0.437249201184692   0.340945991083987   0.883831528455780
   0.937249201184692   0.340945991083987   0.883831528455780
   0.437249201184692   0.674279324417320   0.883831528455780
   0.937249201184692   0.674279324417320   0.883831528455780
   0.062750646347853   0.325722233919882   0.008831511312667
   0.562750646347853   0.325722233919882   0.008831511312667
   0.062750646347853   0.659055567253215   0.008831511312667
   0.562750646347853   0.659055567253215   0.008831511312667
   0.062750646347853   0.992388900586549   0.008831511312667
   0.562750646347853   0.992388900586549   0.008831511312667
   0.062750646347853   0.325722233919882   0.258831511312667
   0.562750646347853   0.325722233919882   0.258831511312667
   0.062750646347853   0.659055567253215   0.258831511312667
   0.562750646347853   0.659055567253215   0.258831511312667
   0.062750646347853   0.992388900586549   0.258831511312667
   0.562750646347853   0.992388900586549   0.258831511312667
   0.062750646347853   0.325722233919882   0.508831511312667
   0.562750646347853   0.325722233919882   0.508831511312667
   0.062750646347853   0.659055567253215   0.508831511312667
   0.562750646347853   0.659055567253215   0.508831511312667
   0.062750646347853   0.992388900586549   0.508831511312667
   0.562750646347853   0.992388900586549   0.508831511312667
   0.062750646347853   0.325722233919882   0.758831511312667
   0.562750646347853   0.325722233919882   0.758831511312667
   0.062750646347853   0.659055567253215   0.758831511312667
   0.562750646347853   0.659055567253215   0.758831511312667
   0.062750646347853   0.992388900586549   0.758831511312667
   0.562750646347853   0.992388900586549   0.758831511312667
   0.236505999603265   0.154072553477933   0.081921229471235
   0.736505999603265   0.154072553477933   0.081921229471235
   0.236505999603265   0.487405886811266   0.081921229471235
   0.736505999603265   0.487405886811266   0.081921229471235
   0.236505999603265   0.820739220144600   0.081921229471235
   0.736505999603265   0.820739220144600   0.081921229471235
   0.236505999603265   0.154072553477933   0.331921229471234
   0.736505999603265   0.154072553477933   0.331921229471234
   0.236505999603265   0.487405886811266   0.331921229471234
   0.736505999603265   0.487405886811266   0.331921229471234
   0.236505999603265   0.820739220144600   0.331921229471234
   0.736505999603265   0.820739220144600   0.331921229471234
   0.236505999603265   0.154072553477933   0.581921229471234
   0.736505999603265   0.154072553477933   0.581921229471234
   0.236505999603265   0.487405886811266   0.581921229471234
   0.736505999603265   0.487405886811266   0.581921229471234
   0.236505999603265   0.820739220144600   0.581921229471234
   0.736505999603265   0.820739220144600   0.581921229471234
   0.236505999603265   0.154072553477933   0.831921229471234
   0.736505999603265   0.154072553477933   0.831921229471234
   0.236505999603265   0.487405886811266   0.831921229471234
   0.736505999603265   0.487405886811266   0.831921229471234
   0.236505999603265   0.820739220144600   0.831921229471234
   0.736505999603265   0.820739220144600   0.831921229471234
   0.263493812303206   0.179262192775234   0.206921202631631
   0.763493812303206   0.179262192775234   0.206921202631631
   0.263493812303206   0.512595526108568   0.206921202631631
   0.763493812303206   0.512595526108568   0.206921202631631
   0.263493812303206   0.845928859441901   0.206921202631631
   0.763493812303206   0.845928859441901   0.206921202631631
   0.263493812303206   0.179262192775234   0.456921202631631
   0.763493812303206   0.179262192775234   0.456921202631631
   0.263493812303206   0.512595526108568   0.456921202631631
   0.763493812303206   0.512595526108568   0.456921202631631
   0.263493812303206   0.845928859441901   0.456921202631631
   0.763493812303206   0.845928859441901   0.456921202631631
   0.263493812303206   0.179262192775234   0.706921202631631
   0.763493812303206   0.179262192775234   0.706921202631631
   0.263493812303206   0.512595526108568   0.706921202631631
   0.763493812303206   0.512595526108568   0.706921202631631
   0.263493812303206   0.845928859441901   0.706921202631631
   0.763493812303206   0.845928859441901   0.706921202631631
   0.263493812303206   0.179262192775234   0.956921202631631
   0.763493812303206   0.179262192775234   0.956921202631631
   0.263493812303206   0.512595526108568   0.956921202631631
   0.763493812303206   0.512595526108568   0.956921202631631
   0.263493812303206   0.845928859441901   0.956921202631631
   0.763493812303206   0.845928859441901   0.956921202631631
   0.486506092806942   0.012596063496039   0.081921510484582
   0.986506092806942   0.012596063496039   0.081921510484582
   0.486506092806942   0.345929396829372   0.081921510484582
   0.986506092806942   0.345929396829372   0.081921510484582
   0.486506092806942   0.679262730162705   0.081921510484582
   0.986506092806942   0.679262730162705   0.081921510484582
   0.486506092806942   0.012596063496039   0.331921510484582
   0.986506092806942   0.012596063496039   0.331921510484582
   0.486506092806942   0.345929396829372   0.331921510484582
   0.986506092806942   0.345929396829372   0.331921510484582
   0.486506092806942   0.679262730162705   0.331921510484582
   0.986506092806942   0.679262730162705   0.331921510484582
   0.486506092806942   0.012596063496039   0.581921510484582
   0.986506092806942   0.012596063496039   0.581921510484582
   0.486506092806942   0.345929396829372   0.581921510484582
   0.986506092806942   0.345929396829372   0.581921510484582
   0.486506092806942   0.679262730162705   0.581921510484582
   0.986506092806942   0.679262730162705   0.581921510484582
   0.486506092806942   0.012596063496039   0.831921510484582
   0.986506092806942   0.012596063496039   0.831921510484582
   0.486506092806942   0.345929396829372   0.831921510484582
   0.986506092806942   0.345929396829372   0.831921510484582
   0.486506092806942   0.679262730162705   0.831921510484582
   0.986506092806942   0.679262730162705   0.831921510484582
   0.013493722505070   0.320738691267940   0.206921532396888
   0.513493722505070   0.320738691267940   0.206921532396888
   0.013493722505070   0.654072024601273   0.206921532396888
   0.513493722505070   0.654072024601273   0.206921532396888
   0.013493722505070   0.987405357934606   0.206921532396888
   0.513493722505070   0.987405357934606   0.206921532396888
   0.013493722505070   0.320738691267940   0.456921532396888
   0.513493722505070   0.320738691267940   0.456921532396888
   0.013493722505070   0.654072024601273   0.456921532396888
   0.513493722505070   0.654072024601273   0.456921532396888
   0.013493722505070   0.987405357934606   0.456921532396888
   0.513493722505070   0.987405357934606   0.456921532396888
   0.013493722505070   0.320738691267940   0.706921532396888
   0.513493722505070   0.320738691267940   0.706921532396888
   0.013493722505070   0.654072024601273   0.706921532396888
   0.513493722505070   0.654072024601273   0.706921532396888
   0.013493722505070   0.987405357934606   0.706921532396888
   0.513493722505070   0.987405357934606   0.706921532396888
   0.013493722505070   0.320738691267940   0.956921532396888
   0.513493722505070   0.320738691267940   0.956921532396888
   0.013493722505070   0.654072024601273   0.956921532396888
   0.513493722505070   0.654072024601273   0.956921532396888
   0.013493722505070   0.987405357934606   0.956921532396888
   0.513493722505070   0.987405357934606   0.956921532396888
   0.222384682225251   0.283863312460675   0.115559015611057
   0.722384682225251   0.283863312460675   0.115559015611057
   0.222384682225251   0.617196645794008   0.115559015611057
   0.722384682225251   0.617196645794008   0.115559015611057
   0.222384682225251   0.950529979127342   0.115559015611057
   0.722384682225251   0.950529979127342   0.115559015611057
   0.222384682225251   0.283863312460675   0.365559015611057