 C  H  O 
        1.0000000000
  20.101083836266593   0.000000000000000  -0.151270397429102
   0.000000000000000  18.589983383576374   0.000000000000000
  -3.695404154260006   0.000000000000000  20.513162620054022
  324  432  108
 Direct
   0.143583983705175   0.055989272290917   0.149111753149983
   0.476917317038508   0.055989272290917   0.149111753149983
   0.810250650371842   0.055989272290917   0.149111753149983
   0.143583983705175   0.389322605624250   0.149111753149983
   0.476917317038508   0.389322605624250   0.149111753149983
   0.810250650371842   0.389322605624250   0.149111753149983
   0.143583983705175   0.722655938957584   0.149111753149983
   0.476917317038508   0.722655938957584   0.149111753149983
   0.810250650371842   0.722655938957584   0.149111753149983
   0.143583983705175   0.055989272290917   0.482445086483316
   0.476917317038508   0.055989272290917   0.482445086483316
   0.810250650371842   0.055989272290917   0.482445086483316
   0.143583983705175   0.389322605624250   0.482445086483316
   0.476917317038508   0.389322605624250   0.482445086483316
   0.810250650371842   0.389322605624250   0.482445086483316
   0.143583983705175   0.722655938957584   0.482445086483316
   0.476917317038508   0.722655938957584   0.482445086483316
   0.810250650371842   0.722655938957584   0.482445086483316
   0.143583983705175   0.055989272290917   0.815778419816649
   0.476917317038508   0.055989272290917   0.815778419816649
   0.810250650371842   0.055989272290917   0.815778419816649
   0.143583983705175   0.389322605624250   0.815778419816649
   0.476917317038508   0.389322605624250   0.815778419816649
   0.810250650371842   0.389322605624250   0.815778419816649
   0.143583983705175   0.722655938957584   0.815778419816649
   0.476917317038508   0.722655938957584   0.815778419816649
   0.810250650371842   0.722655938957584   0.815778419816649
   0.189749140186527   0.222655938957582   0.184218982176116
   0.523082473519860   0.222655938957582   0.184218982176116
   0.856415806853194   0.222655938957582   0.184218982176116
   0.189749140186527   0.555989272290915   0.184218982176116
   0.523082473519860   0.555989272290915   0.184218982176116
   0.856415806853194   0.555989272290915   0.184218982176116
   0.189749140186527   0.889322605624249   0.184218982176116
   0.523082473519860   0.889322605624249   0.184218982176116
   0.856415806853194   0.889322605624249   0.184218982176116
   0.189749140186527   0.222655938957582   0.517552315509449
   0.523082473519860   0.222655938957582   0.517552315509449
   0.856415806853194   0.222655938957582   0.517552315509449
   0.189749140186527   0.555989272290915   0.517552315509449
   0.523082473519860   0.555989272290915   0.517552315509449
   0.856415806853194   0.555989272290915   0.517552315509449
   0.189749140186527   0.889322605624249   0.517552315509449
   0.523082473519860   0.889322605624249   0.517552315509449
   0.856415806853194   0.889322605624249   0.517552315509449
   0.189749140186527   0.222655938957582   0.850885648842783
   0.523082473519860   0.222655938957582   0.850885648842783
   0.856415806853194   0.222655938957582   0.850885648842783
   0.189749140186527   0.555989272290915   0.850885648842783
   0.523082473519860   0.555989272290915   0.850885648842783
   0.856415806853194   0.555989272290915   0.850885648842783
   0.189749140186527   0.889322605624249   0.850885648842783
   0.523082473519860   0.889322605624249   0.850885648842783
   0.856415806853194   0.889322605624249   0.850885648842783
   0.172911370591500   0.056491552729492   0.086584207590849
   0.506244703924833   0.056491552729492   0.086584207590849
   0.839578037258166   0.056491552729492   0.086584207590849
   0.172911370591500   0.389824886062825   0.086584207590849
   0.506244703924833   0.389824886062825   0.086584207590849
   0.839578037258166   0.389824886062825   0.086584207590849
   0.172911370591500   0.723158219396159   0.086584207590849
   0.506244703924833   0.723158219396159   0.086584207590849
   0.839578037258166   0.723158219396159   0.086584207590849
   0.172911370591500   0.056491552729492   0.419917540924183
   0.506244703924833   0.056491552729492   0.419917540924183
   0.839578037258166   0.056491552729492   0.419917540924183
   0.172911370591500   0.389824886062825   0.419917540924183
   0.506244703924833   0.389824886062825   0.419917540924183
   0.839578037258166   0.389824886062825   0.419917540924183
   0.172911370591500   0.723158219396159   0.419917540924183
   0.506244703924833   0.723158219396159   0.419917540924183
   0.839578037258166   0.723158219396159   0.419917540924183
   0.172911370591500   0.056491552729492   0.753250874257516
   0.506244703924833   0.056491552729492   0.753250874257516
   0.839578037258166   0.056491552729492   0.753250874257516
   0.172911370591500   0.389824886062825   0.753250874257516
   0.506244703924833   0.389824886062825   0.753250874257516
   0.839578037258166   0.389824886062825   0.753250874257516
   0.172911370591500   0.723158219396159   0.753250874257516
   0.506244703924833   0.723158219396159   0.753250874257516
   0.839578037258166   0.723158219396159   0.753250874257516
   0.160421753300203   0.223158219396158   0.246746527735249
   0.493755086633536   0.223158219396158   0.246746527735249
   0.827088419966869   0.223158219396158   0.246746527735249
   0.160421753300203   0.556491552729491   0.246746527735249
   0.493755086633536   0.556491552729491   0.246746527735249
   0.827088419966869   0.556491552729491   0.246746527735249
   0.160421753300203   0.889824886062825   0.246746527735249
   0.493755086633536   0.889824886062825   0.246746527735249
   0.827088419966869   0.889824886062825   0.246746527735249
   0.160421753300203   0.223158219396158   0.580079861068583
   0.493755086633536   0.223158219396158   0.580079861068583
   0.827088419966869   0.223158219396158   0.580079861068583
   0.160421753300203   0.556491552729491   0.580079861068583
   0.493755086633536   0.556491552729491   0.580079861068583
   0.827088419966869   0.556491552729491   0.580079861068583
   0.160421753300203   0.889824886062825   0.580079861068583
   0.493755086633536   0.889824886062825   0.580079861068583
   0.827088419966869   0.889824886062825   0.580079861068583
   0.160421753300203   0.223158219396158   0.913413194401916
   0.493755086633536   0.223158219396158   0.913413194401916
   0.827088419966869   0.223158219396158   0.913413194401916
   0.160421753300203   0.556491552729491   0.913413194401916
   0.493755086633536   0.556491552729491   0.913413194401916
   0.827088419966869   0.556491552729491   0.913413194401916
   0.160421753300203   0.889824886062825   0.913413194401916
   0.493755086633536   0.889824886062825   0.913413194401916
   0.827088419966869   0.889824886062825   0.913413194401916
   0.119797825366864   0.071651018427293   0.024349818337358
   0.453131158700197   0.071651018427293   0.024349818337358
   0.786464492033531   0.071651018427293   0.024349818337358
   0.119797825366864   0.404984351760626   0.024349818337358
   0.453131158700197   0.404984351760626   0.024349818337358
   0.786464492033531   0.404984351760626   0.024349818337358
   0.119797825366864   0.738317685093959   0.024349818337358
   0.453131158700197   0.738317685093959   0.024349818337358
   0.786464492033531   0.738317685093959   0.024349818337358
   0.119797825366864   0.071651018427293   0.357683151670692
   0.453131158700197   0.071651018427293   0.357683151670692
   0.786464492033531   0.071651018427293   0.357683151670692
   0.119797825366864   0.404984351760626   0.357683151670692
   0.453131158700197   0.404984351760626   0.357683151670692
   0.786464492033531   0.404984351760626   0.357683151670692
   0.119797825366864   0.738317685093959   0.357683151670692
   0.453131158700197   0.738317685093959   0.357683151670692
   0.786464492033531   0.738317685093959   0.357683151670692
   0.119797825366864   0.071651018427293   0.691016485004025
   0.453131158700197   0.071651018427293   0.691016485004025
   0.786464492033531   0.071651018427293   0.691016485004025
   0.119797825366864   0.404984351760626   0.691016485004025
   0.453131158700197   0.404984351760626   0.691016485004025
   0.786464492033531   0.404984351760626   0.691016485004025
   0.119797825366864   0.738317685093959   0.691016485004025
   0.453131158700197   0.738317685093959   0.691016485004025
   0.786464492033531   0.738317685093959   0.691016485004025
   0.213535298524838   0.238317685093958   0.308980916988740
   0.546868631858171   0.238317685093958   0.308980916988740
   0.880201965191504   0.238317685093958   0.308980916988740
   0.213535298524838   0.571651018427291   0.308980916988740
   0.546868631858171   0.571651018427291   0.308980916988740
   0.880201965191504   0.571651018427291   0.308980916988740
   0.213535298524838   0.904984351760624   0.308980916988740
   0.546868631858171   0.904984351760624   0.308980916988740
   0.880201965191504   0.904984351760624   0.308980916988740
   0.213535298524838   0.238317685093958   0.642314250322073
   0.546868631858171   0.238317685093958   0.642314250322073
   0.880201965191504   0.238317685093958   0.642314250322073
   0.213535298524838   0.571651018427291   0.642314250322073
   0.546868631858171   0.571651018427291   0.642314250322073
   0.880201965191504   0.571651018427291   0.642314250322073
   0.213535298524838   0.904984351760624   0.642314250322073
   0.546868631858171   0.904984351760624   0.642314250322073
   0.880201965191504   0.904984351760624   0.642314250322073
   0.213535298524838   0.238317685093958   0.975647583655406
   0.546868631858171   0.238317685093958   0.975647583655406
   0.880201965191504   0.238317685093958   0.975647583655406
   0.213535298524838   0.571651018427291   0.975647583655406
   0.546868631858171   0.571651018427291   0.975647583655406
   0.880201965191504   0.571651018427291   0.975647583655406
   0.213535298524838   0.904984351760624   0.975647583655406
   0.546868631858171   0.904984351760624   0.975647583655406
   0.880201965191504   0.904984351760624   0.975647583655406
   0.057931217582155   0.023224868276526   0.019537277022341
   0.391264550915488   0.023224868276526   0.019537277022341
   0.724597884248822   0.023224868276526   0.019537277022341
   0.057931217582155   0.356558201609859   0.019537277022341
   0.391264550915488   0.356558201609859   0.019537277022341
   0.724597884248822   0.356558201609859   0.019537277022341
   0.057931217582155   0.689891534943192   0.019537277022341
   0.391264550915488   0.689891534943192   0.019537277022341
   0.724597884248822   0.689891534943192   0.019537277022341
   0.057931217582155   0.023224868276526   0.352870610355675
   0.391264550915488   0.023224868276526   0.352870610355675
   0.724597884248822   0.023224868276526   0.352870610355675
   0.057931217582155   0.356558201609859   0.352870610355675
   0.391264550915488   0.356558201609859   0.352870610355675
   0.724597884248822   0.356558201609859   0.352870610355675
   0.057931217582155   0.689891534943192   0.352870610355675
   0.391264550915488   0.689891534943192   0.352870610355675
   0.724597884248822   0.689891534943192   0.352870610355675
   0.057931217582155   0.023224868276526   0.686203943689008
   0.391264550915488   0.023224868276526   0.686203943689008
   0.724597884248822   0.023224868276526   0.686203943689008
   0.057931217582155   0.356558201609859   0.686203943689008
   0.391264550915488   0.356558201609859   0.686203943689008
   0.724597884248822   0.356558201609859   0.686203943689008
   0.057931217582155   0.689891534943192   0.686203943689008
   0.391264550915488   0.689891534943192   0.686203943689008
   0.724597884248822   0.689891534943192   0.686203943689008
   0.275401906309546   0.189891534943192   0.313793458303757
   0.608735239642879   0.189891534943192   0.313793458303757
   0.942068572976212   0.189891534943192   0.313793458303757
   0.275401906309546   0.523224868276525   0.313793458303757
   0.608735239642879   0.523224868276525   0.313793458303757
   0.942068572976212   0.523224868276525   0.313793458303757
   0.275401906309546   0.856558201609858   0.313793458303757
   0.608735239642879   0.856558201609858   0.313793458303757
   0.942068572976212   0.856558201609858   0.313793458303757
   0.275401906309546   0.189891534943192   0.647126791637091
   0.608735239642879   0.189891534943192   0.647126791637091
   0.942068572976212   0.189891534943192   0.647126791637091
   0.275401906309546   0.523224868276525   0.647126791637091
   0.608735239642879   0.523224868276525   0.647126791637091
   0.942068572976212   0.523224868276525   0.647126791637091
   0.275401906309546   0.856558201609858   0.647126791637091
   0.608735239642879   0.856558201609858   0.647126791637091
   0.942068572976212   0.856558201609858   0.647126791637091
   0.275401906309546   0.189891534943192   0.980460124970424
   0.608735239642879   0.189891534943192   0.980460124970424
   0.942068572976212   0.189891534943192   0.980460124970424
   0.275401906309546   0.523224868276525   0.980460124970424
   0.608735239642879   0.523224868276525   0.980460124970424
   0.942068572976212   0.523224868276525   0.980460124970424
   0.275401906309546   0.856558201609858   0.980460124970424
   0.608735239642879   0.856558201609858   0.980460124970424
   0.942068572976212   0.856558201609858   0.980460124970424
   0.033055086261277   0.008287430883773   0.083197522136915
   0.366388419594610   0.008287430883773   0.083197522136915
   0.699721752927943   0.008287430883773   0.083197522136915
   0.033055086261277   0.341620764217107   0.083197522136915
   0.366388419594610   0.341620764217107   0.083197522136915
   0.699721752927943   0.341620764217107   0.083197522136915
   0.033055086261277   0.674954097550440   0.083197522136915
   0.366388419594610   0.674954097550440   0.083197522136915
   0.699721752927943   0.674954097550440   0.083197522136915
   0.033055086261277   0.008287430883773   0.416530855470248
   0.366388419594610   0.008287430883773   0.416530855470248
   0.699721752927943   0.008287430883773   0.416530855470248
   0.033055086261277   0.341620764217107   0.416530855470248
   0.366388419594610   0.341620764217107   0.416530855470248
   0.699721752927943   0.341620764217107   0.416530855470248
   0.033055086261277   0.674954097550440   0.416530855470248
   0.366388419594610   0.674954097550440   0.416530855470248
   0.699721752927943   0.674954097550440   0.416530855470248
   0.033055086261277   0.008287430883773   0.749864188803582
   0.366388419594610   0.008287430883773   0.749864188803582
   0.699721752927943   0.008287430883773   0.749864188803582
   0.033055086261277   0.341620764217107   0.749864188803582
   0.366388419594610   0.341620764217107   0.749864188803582
   0.699721752927943   0.341620764217107   0.749864188803582
   0.033055086261277   0.674954097550440   0.749864188803582
   0.366388419594610   0.674954097550440   0.749864188803582
   0.699721752927943   0.674954097550440   0.749864188803582
   0.300278037630425   0.174954097550440   0.250133213189184
   0.633611370963758   0.174954097550440   0.250133213189184
   0.966944704297092   0.174954097550440   0.250133213189184
   0.300278037630425   0.508287430883773   0.250133213189184
   0.633611370963758   0.508287430883773   0.250133213189184
   0.966944704297092   0.508287430883773   0.250133213189184
   0.300278037630425   0.841620764217106   0.250133213189184
   0.633611370963758   0.841620764217106   0.250133213189184
   0.966944704297092   0.841620764217106   0.250133213189184
   0.300278037630425   0.174954097550440   0.583466546522517
   0.633611370963758   0.174954097550440   0.583466546522517
   0.966944704297092   0.174954097550440   0.583466546522517
   0.300278037630425   0.508287430883773   0.583466546522517
   0.633611370963758   0.508287430883773   0.583466546522517
   0.966944704297092   0.508287430883773   0.583466546522517
   0.300278037630425   0.841620764217106   0.583466546522517
   0.633611370963758   0.841620764217106   0.583466546522517
   0.966944704297092   0.841620764217106   0.583466546522517
   0.300278037630425   0.174954097550440   0.916799879855850
   0.633611370963758   0.174954097550440   0.916799879855850
   0.966944704297092   0.174954097550440   0.916799879855850
   0.300278037630425   0.508287430883773   0.916799879855850
   0.633611370963758   0.508287430883773   0.916799879855850
   0.966944704297092   0.508287430883773   0.916799879855850
   0.300278037630425   0.841620764217106   0.916799879855850
   0.633611370963758   0.841620764217106   0.916799879855850
   0.966944704297092   0.841620764217106   0.916799879855850
   0.066831465076700   0.056167552907436   0.140926958957091
   0.400164798410033   0.056167552907436   0.140926958957091
   0.733498131743366   0.056167552907436   0.140926958957091
   0.066831465076700   0.389500886240770   0.140926958957091
   0.400164798410033   0.389500886240770   0.140926958957091
   0.733498131743366   0.389500886240770   0.140926958957091
   0.066831465076700   0.722834219574103   0.140926958957091
   0.400164798410033   0.722834219574103   0.140926958957091
   0.733498131743366   0.722834219574103   0.140926958957091
   0.066831465076700   0.056167552907436   0.474260292290424
   0.400164798410033   0.056167552907436   0.474260292290424
   0.733498131743366   0.056167552907436   0.474260292290424
   0.066831465076700   0.389500886240770   0.474260292290424
   0.400164798410033   0.389500886240770   0.474260292290424
   0.733498131743366   0.389500886240770   0.474260292290424
   0.066831465076700   0.722834219574103   0.474260292290424
   0.400164798410033   0.722834219574103   0.474260292290424
   0.733498131743366   0.722834219574103   0.474260292290424
   0.066831465076700   0.056167552907436   0.807593625623757
   0.400164798410033   0.056167552907436   0.807593625623757
   0.733498131743366   0.056167552907436   0.807593625623757
   0.066831465076700   0.389500886240770   0.807593625623757
   0.400164798410033   0.389500886240770   0.807593625623757
   0.733498131743366   0.389500886240770   0.807593625623757
   0.066831465076700   0.722834219574103   0.807593625623757
   0.400164798410033   0.722834219574103   0.807593625623757
   0.733498131743366   0.722834219574103   0.807593625623757
   0.266501658815002   0.222834219574102   0.192403776369008
   0.599834992148335   0.222834219574102   0.192403776369008
   0.933168325481669   0.222834219574102   0.192403776369008
   0.266501658815002   0.556167552907435   0.192403776369008
   0.599834992148335   0.556167552907435   0.192403776369008
   0.933168325481669   0.556167552907435   0.192403776369008
   0.266501658815002   0.889500886240768   0.192403776369008
   0.599834992148335   0.889500886240768   0.192403776369008
   0.933168325481669   0.889500886240768   0.192403776369008
   0.266501658815002   0.222834219574102   0.525737109702341
   0.599834992148335   0.222834219574102   0.525737109702341
   0.933168325481669   0.222834219574102   0.525737109702341
   0.266501658815002   0.556167552907435   0.525737109702341
   0.599834992148335   0.556167552907435   0.525737109702341
   0.933168325481669   0.556167552907435   0.525737109702341
   0.266501658815002   0.889500886240768   0.525737109702341
   0.599834992148335   0.889500886240768   0.525737109702341
   0.933168325481669   0.889500886240768   0.525737109702341
   0.266501658815002   0.222834219574102   0.859070443035674
   0.599834992148335   0.222834219574102   0.859070443035674
   0.933168325481669   0.222834219574102   0.859070443035674
   0.266501658815002   0.556167552907435   0.859070443035674
   0.599834992148335   0.556167552907435   0.859070443035674
   0.933168325481669   0.556167552907435   0.859070443035674
   0.266501658815002   0.889500886240768   0.859070443035674
   0.599834992148335   0.889500886240768   0.859070443035674
   0.933168325481669   0.889500886240768   0.859070443035674
   0.214051190795329   0.095739611643449   0.091720661934611
   0.547384524128662   0.095739611643449   0.091720661934611
   0.880717857461996   0.095739611643449   0.091720661934611
   0.214051190795329   0.429072944976783   0.091720661934611
   0.547384524128662   0.429072944976783   0.091720661934611
   0.880717857461996   0.429072944976783   0.091720661934611
   0.214051190795329   0.762406278310116   0.091720661934611
   0.547384524128662   0.762406278310116   0.091720661934611
   0.880717857461996   0.762406278310116   0.091720661934611
   0.214051190795329   0.095739611643449   0.425053995267944
   0.547384524128662   0.095739611643449   0.425053995267944
   0.880717857461996   0.095739611643449   0.425053995267944
   0.214051190795329   0.429072944976783   0.425053995267944
   0.547384524128662   0.429072944976783   0.425053995267944
   0.880717857461996   0.429072944976783   0.425053995267944
   0.214051190795329   0.762406278310116   0.425053995267944
   0.547384524128662   0.762406278310116   0.425053995267944
   0.880717857461996   0.762406278310116   0.425053995267944
   0.214051190795329   0.095739611643449   0.758387328601278
   0.547384524128662   0.095739611643449   0.758387328601278
   0.880717857461996   0.095739611643449   0.758387328601278
   0.214051190795329   0.429072944976783   0.758387328601278
   0.547384524128662   0.429072944976783   0.758387328601278
   0.880717857461996   0.429072944976783   0.758387328601278
   0.214051190795329   0.762406278310116   0.758387328601278
   0.547384524128662   0.762406278310116   0.758387328601278
   0.880717857461996   0.762406278310116   0.758387328601278
   0.119281933096374   0.262406278310115   0.241610073391487
   0.452615266429707   0.262406278310115   0.241610073391487
   0.785948599763040   0.262406278310115   0.241610073391487
   0.119281933096374   0.595739611643448   0.241610073391487
   0.452615266429707   0.595739611643448   0.241610073391487
   0.785948599763040   0.595739611643448   0.241610073391487
   0.119281933096374   0.929072944976782   0.241610073391487
   0.452615266429707   0.929072944976782   0.241610073391487
   0.785948599763040   0.929072944976782   0.241610073391487
   0.119281933096374   0.262406278310115   0.574943406724821
   0.452615266429707   0.262406278310115   0.574943406724821
   0.785948599763040   0.262406278310115   0.574943406724821
   0.119281933096374   0.595739611643448   0.574943406724821
   0.452615266429707   0.595739611643448   0.574943406724821
   0.785948599763040   0.595739611643448   0.574943406724821
   0.119281933096374   0.929072944976782   0.574943406724821
   0.452615266429707   0.929072944976782   0.574943406724821
   0.785948599763040   0.929072944976782   0.574943406724821
   0.119281933096374   0.262406278310115   0.908276740058154
   0.452615266429707   0.262406278310115   0.908276740058154
   0.785948599763040   0.262406278310115   0.908276740058154
   0.119281933096374   0.595739611643448   0.908276740058154
   0.452615266429707   0.595739611643448   0.908276740058154
   0.785948599763040   0.595739611643448   0.908276740058154
   0.119281933096374   0.929072944976782   0.908276740058154
   0.452615266429707   0.929072944976782   0.908276740058154
   0.785948599763040   0.929072944976782   0.908276740058154
   0.195567457593940   0.003301745565082   0.083355554316241
   0.528900790927273   0.003301745565082   0.083355554316241
   0.862234124260607   0.003301745565082   0.083355554316241
   0.195567457593940   0.336635078898416   0.083355554316241
   0.528900790927273   0.336635078898416   0.083355554316241
   0.862234124260607   0.336635078898416   0.083355554316241
   0.195567457593940   0.669968412231749   0.083355554316241
   0.528900790927273   0.669968412231749   0.083355554316241
   0.862234124260607   0.669968412231749   0.083355554316241
   0.195567457593940   0.003301745565082   0.416688887649574
   0.528900790927273   0.003301745565082   0.416688887649574
   0.862234124260607   0.003301745565082   0.416688887649574
   0.195567457593940   0.336635078898416   0.416688887649574
   0.528900790927273   0.336635078898416   0.416688887649574
   0.862234124260607   0.336635078898416   0.416688887649574
   0.195567457593940   0.669968412231749   0.416688887649574
   0.528900790927273   0.669968412231749   0.416688887649574
   0.862234124260607   0.669968412231749   0.416688887649574
   0.195567457593940   0.003301745565082   0.750022220982908
   0.528900790927273   0.003301745565082   0.750022220982908
   0.862234124260607   0.003301745565082   0.750022220982908
   0.195567457593940   0.336635078898416   0.750022220982908
   0.528900790927273   0.336635078898416   0.750022220982908
   0.862234124260607   0.336635078898416   0.750022220982908
   0.195567457593940   0.669968412231749   0.750022220982908
   0.528900790927273   0.669968412231749   0.750022220982908
   0.862234124260607   0.669968412231749   0.750022220982908
   0.137765666297762   0.169968412231748   0.249975181009857
   0.471098999631095   0.169968412231748   0.249975181009857
   0.804432332964429   0.169968412231748   0.249975181009857
   0.137765666297762   0.503301745565082   0.249975181009857
   0.471098999631095   0.503301745565082   0.249975181009857
   0.804432332964429   0.503301745565082   0.249975181009857
   0.137765666297762   0.836635078898415   0.249975181009857
   0.471098999631095   0.836635078898415   0.249975181009857
   0.804432332964429   0.836635078898415   0.249975181009857
   0.137765666297762   0.169968412231748   0.583308514343191
   0.471098999631095   0.169968412231748   0.583308514343191
   0.804432332964429   0.169968412231748   0.583308514343191
   0.137765666297762   0.503301745565082   0.583308514343191
   0.471098999631095   0.503301745565082   0.583308514343191
   0.804432332964429   0.503301745565082   0.583308514343191
   0.137765666297762   0.836635078898415   0.583308514343191
   0.471098999631095   0.836635078898415   0.583308514343191
   0.804432332964429   0.836635078898415   0.583308514343191
   0.137765666297762   0.169968412231748   0.916641847676524
   0.471098999631095   0.169968412231748   0.916641847676524
   0.804432332964429   0.169968412231748   0.916641847676524
   0.137765666297762   0.503301745565082   0.916641847676524
   0.471098999631095   0.503301745565082   0.916641847676524
   0.804432332964429   0.503301745565082   0.916641847676524
   0.137765666297762   0.836635078898415   0.916641847676524
   0.471098999631095   0.836635078898415   0.916641847676524
   0.804432332964429   0.836635078898415   0.916641847676524
   0.101517806516818   0.127125343826951   0.026563674437246
   0.434851139850151   0.127125343826951   0.026563674437246
   0.768184473183485   0.127125343826951   0.026563674437246
   0.101517806516818   0.460458677160285   0.026563674437246
   0.434851139850151   0.460458677160285   0.026563674437246
   0.768184473183485   0.460458677160285   0.026563674437246
   0.101517806516818   0.793792010493618   0.026563674437246
   0.434851139850151   0.793792010493618   0.026563674437246
   0.768184473183485   0.793792010493618   0.026563674437246
   0.101517806516818   0.127125343826951   0.359897007770580
   0.434851139850151   0.127125343826951   0.359897007770580
   0.768184473183485   0.127125343826951   0.359897007770580
   0.101517806516818   0.460458677160285   0.359897007770580
   0.434851139850151   0.460458677160285   0.359897007770580
   0.768184473183485   0.460458677160285   0.359897007770580
   0.101517806516818   0.793792010493618   0.359897007770580
   0.434851139850151   0.793792010493618   0.359897007770580
   0.768184473183485   0.793792010493618   0.359897007770580
   0.101517806516818   0.127125343826951   0.693230341103913
   0.434851139850151   0.127125343826951   0.693230341103913
   0.768184473183485   0.127125343826951   0.693230341103913
   0.101517806516818   0.460458677160285   0.693230341103913
   0.434851139850151   0.460458677160285   0.693230341103913
   0.768184473183485   0.460458677160285   0.693230341103913
   0.101517806516818   0.793792010493618   0.693230341103913
   0.434851139850151   0.793792010493618   0.693230341103913
   0.768184473183485   0.793792010493618   0.693230341103913
   0.231815317374884   0.293792010493618   0.306767060888852
   0.565148650708217   0.293792010493618   0.306767060888852
   0.898481984041550   0.293792010493618   0.306767060888852
   0.231815317374884   0.627125343826951   0.306767060888852
   0.565148650708217   0.627125343826951   0.306767060888852
   0.898481984041550   0.627125343826951   0.306767060888852
   0.231815317374884   0.960458677160285   0.306767060888852
   0.565148650708217   0.960458677160285   0.306767060888852
   0.898481984041550   0.960458677160285   0.306767060888852
   0.231815317374884   0.293792010493618   0.640100394222186
   0.565148650708217   0.293792010493618   0.640100394222186
   0.898481984041550   0.293792010493618   0.640100394222186
   0.231815317374884   0.627125343826951   0.640100394222186
   0.565148650708217   0.627125343826951   0.640100394222186
   0.898481984041550   0.627125343826951   0.640100394222186
   0.231815317374884   0.960458677160285   0.640100394222186
   0.565148650708217   0.960458677160285   0.640100394222186
   0.898481984041550   0.960458677160285   0.640100394222186
   0.231815317374884   0.293792010493618   0.973433727555519
   0.565148650708217   0.293792010493618   0.973433727555519
   0.898481984041550   0.293792010493618   0.973433727555519
   0.231815317374884   0.627125343826951   0.973433727555519
   0.565148650708217   0.627125343826951   0.973433727555519
   0.898481984041550   0.627125343826951   0.973433727555519
   0.231815317374884   0.960458677160285   0.973433727555519
   0.565148650708217   0.960458677160285   0.973433727555519
   0.898481984041550   0.960458677160285   0.973433727555519
   0.141279924377712   0.065937343416806   0.313520746568872