 C  H  O 
 1.0000000000000000
    11.1856024325360490    0.0000004102892640   -0.1350561767649170
     0.0000003169637450   17.3657458225842767    0.0000013285422170
    -0.4180952641183420    0.0000009799740880   10.1960565192292005
 C   H   O  
  64  96  64
Cartesian
  0.2586222439442118  8.0922391246743803  4.9606991388288444
  5.8514234594294265  8.0922393288306758  4.8931710520829723
  0.2586224023450475 16.7751120346304390  4.9606998054678844
  5.8514236182807506 16.7751122380551756  4.8931717173118292
  0.0495746121554546  8.0922396139154760 10.0587273986736641
  5.6423758272910129  8.0922398178399000  9.9911993124199139
  0.0495747702078285 16.7751125246799582 10.0587280650224695
  5.6423759865157885 16.7751127285276027  9.9911999762354053
  5.1251752622890487  0.5905705293335873  0.0698362154348542
 10.7179764782395530  0.5905707331106895  0.0023081267815857
  5.1251754194653047  9.2734434398898333  0.0698368811044927
 10.7179766374530754  9.2734436457331260  0.0023087892530005
  4.9161276300482522  0.5905710196123073  5.1678644750760414
 10.5089288463380957  0.5905712235147805  5.1003363860441384
  4.9161277870524414  9.2734439288650474  5.1678651426789548
 10.5089290045970571  9.2734441344134311  5.1003370513481006
  0.3631456340939207  4.9320070801433848  2.4116850767806777
  5.9559468499865389  4.9320072848973924  2.3441569873980437
  0.3631457920719485 13.6148799916829386  2.4116857418930975
  5.9559470087465485 13.6148801959316934  2.3441576508577722
  0.1540980017163325  4.9320075712267828  7.5097133383605401
  5.7468992173906619  4.9320077768213304  7.4421852499937104
  0.1540981600530798 13.6148804823747032  7.5097140028400098
  5.7468993762843237 13.6148806871304995  7.4421859126941001
  5.0206511810094403  3.7508028019239972  2.6188512135631590
 10.6134523985230960  3.7508030059592610  2.5513231209615301
  5.0206513397120140 12.4336757131105617  2.6188518771489164
 10.6134525567611764 12.4336759168702891  2.5513237855035955
  4.8116035495989520  3.7508032898031254  7.7168794704131081
 10.4044047666512665  3.7508034948155120  7.6493513792377712
  4.8116037077624814 12.4336762020333200  7.7168801354561669
 10.4044049250407831 12.4336764059917719  7.6493520438856297
  1.2867457223724166  8.3874885480038710  3.8880582412150995
  6.8795469367209243  8.3874887925987096  3.8205301218557990
  1.2867458840055248 17.0703614807569437  3.8880588852569780
  6.8795470934026124 17.0703617107918646  3.8205307807439932
  1.0776980897962649  8.3874890350854141  8.9860865037220954
  6.6704993034676301  8.3874892894142032  8.9185583762059331
  1.0776982516827354 17.0703619716292536  8.9860871436002618
  6.6704994611249422 17.0703621931312277  8.9185590466012883
  4.0970518481737050  0.2953210759964939  1.1424772880122183
  9.6898530571574799  0.2953213023054883  1.0749491865783158
  4.0970520087790758  8.9781940024896461  1.1424779366264792
  9.6898532136903128  8.9781941826012801  1.0749498799839641
  3.8880042159159398  0.2953215662078281  6.2405055475461877
  9.4808054250026519  0.2953217855763803  6.1729774521819269
  3.8880043786231240  8.9781945073526774  6.2405061827953485
  9.4808055831035905  8.9781946976027349  6.1729781175232343
  1.3912691594203779  4.6367575544521591  1.3390442588770899
  6.9840703705431100  4.6367577449685839  1.2715161621262097
  1.3912693189041849 13.3196304598283159  1.3390449170305114
  6.9840705278574147 13.3196306614533970  1.2715168321933861
  1.1822215273385592  4.6367580308127332  6.4370725065693364
  6.7750227397733411  4.6367582145787356  6.3695444031728030
  1.1822216869112940 13.3196309431560014  6.4370731707840321
  6.7750228963316754 13.3196311357266755  6.3695450776650828
  3.9925277351969144  4.0460522641189200  3.6914921160593597
  9.5853289416258765  4.0460524852548039  3.6239640489739648
  3.9925278935371633 12.7289251809887904  3.6914927847954333
  9.5853290997877938 12.7289253940348424  3.6239647118290845
  3.7834801019978226  4.0460527737423106  8.7895203939310544
  9.3762813099263980  4.0460529845035591  8.7219923169249185
  3.7834802615994283 12.7289256788962160  8.7895210516240496
  9.3762814684924116 12.7289258943951697  8.7219929804718053
  5.2820561271562383  7.2147470546877708  4.5622005304490179
 10.8748573433181956  7.2147472602866243  4.4946724411301018
  5.2820562857323283 15.8976199658265731  4.5622011939262395
 10.8748575026018397 15.8976201706085742  4.4946731066366228
  5.0730084948441432  7.2147475445995637  9.6602287897237282
 10.6658097113394241  7.2147477502558122  9.5927007005870362
  5.0730086535727459 15.8976204556953906  9.6602294541861156
 10.6658098702394479 15.8976206603167327  9.5927013667054410
  0.1017413276561977  1.4680625821923361  0.4683348675598760
  5.6945425443648023  1.4680627868329792  0.4008067803433657
  0.1017414861167070 10.1509354941783627  0.4683355325508252
  5.6945427018288814 10.1509356988081940  0.4008074434131084
 -0.1073063043851228  1.4680630722251922  5.5663631275715488
  5.4854949122072929  1.4680632769273345  5.4988350403574442
 -0.1073061459119737 10.1509359842387763  5.5663637920150242
  5.4854950701192644 10.1509361889115617  5.4988357030774599
  5.3865796240480233  5.8094994378707563  2.0131863444136977
 10.9793808405890960  5.8094996430611179  1.9456582560836242
  5.3865797826627730 14.4923723491487042  2.0131870084158781
 10.9793809987435669 14.4923725540132065  1.9456589199721890
  5.1775319919652478  5.8094999279052910  7.1112146049433518
 10.7703332085158188  5.8095001330974148  7.0436865165326799
  5.1775321504517207 14.4923728393080626  7.1112152691531225
 10.7703333667316663 14.4923730441603134  7.0436871807275541
 -0.0027827692100222  2.8733104110247751  3.0173498543993285
  5.5900184469917233  2.8733106163449991  2.9498217667982884
 -0.0027826109175235 11.5561833222288080  3.0173505193995158
  5.5900186053562804 11.5561835275242935  2.9498224303806397
 -0.2118304010316657  2.8733109008300151  8.1153781134675622
  5.3809708152509677  2.8733111061757937  8.0478500256557766
 -0.2118302424780513 11.5561838121308647  8.1153787782433664
  5.3809709736120386 11.5561840173154717  8.0478506891728614
  0.9956381320619325  7.7819631024066576  0.7661374259252857
  6.5884393477964807  7.7819633074683487  0.6986093387050594
  0.9956382912141170 16.4648360146874602  0.7661380908230131
  6.5884395068078003 16.4648362191393467  0.6986100023932555
  0.7865905000599375  7.7819635925768962  5.8641656860563316
  6.3793917161542710  7.7819637980420735  5.7966375987853338
  0.7865906589619869 16.4648365047923200  5.8641663503265713
  6.3793918744275944 16.4648367089374794  5.7966382620564003
  4.3881593006799662  0.9008464926614013  4.2643979408192365
  9.9809605164910771  0.9008466970243373  4.1968698521903045
  4.3881594579237229  9.5837194028394581  4.2643986043812552
  9.9809606743034625  9.5837196082855218  4.1968705167449114
  4.1791116687254597  0.9008469824150640  9.3624262001690290
  9.7719128842654577  0.9008471865458556  9.2948981114807179
  4.1791118261039717  9.5837198926265579  9.3624268638875652
  9.7719130428294783  9.5837200984775208  9.2948987762041426
  0.8911137387260646  5.2422827508731817  3.3151514947956557
  6.4839149550034705  5.2422829563063180  3.2476234074831560
  0.8911138967836070 13.9251556624482689  3.3151521591842612
  6.4839151134200161 13.9251558676043228  3.2476240716265750
  0.6820661064855931  5.2422832405977298  8.4131797546280378
  6.2748673225189258  5.2422834460191963  8.3456516671209418
  0.6820662648838763 13.9251561520030958  8.4131804189383264
  6.2748674812535450 13.9251563573711703  8.3456523314859794
  4.4926829959312249  3.4405271842749094  1.7153847809626852
 10.0854842126187556  3.4405273896106130  1.6478566927642408
  4.4926831544870609 12.1234000957187433  1.7153854447317187
 10.0854843710055864 12.1234003007110811  1.6478573574939024
  4.2836353644712633  3.4405276741834792  6.8134130407029696
  9.8764365808196324  3.4405278795897334  6.7458849524610720
  4.2836355225852332 12.1234005858389082  6.8134137044532794
  9.8764367392864791 12.1234007906199519  6.7458856171583070
  2.9007814890768446  7.6374517439330427  3.1050808196585158
  8.4935827051182482  7.6374519505264944  3.0375527311614663
  2.9007816499915555 16.3203246573509126  3.1050814807565894
  8.4935828613959643 16.3203248614647478  3.0375533964283137
  2.6917338559746411  7.6374522331665720  8.2031090800347233
  8.2845350715652586  7.6374524399569461  8.1355809917186548
  2.6917340178596256 16.3203251471913546  8.2031097403403503
  8.2845352295029606 16.3203253511537092  8.1355816559893928
  2.4830160673500017  1.0453579068564061  1.9254546934537882
  8.0758172789956735  1.0453581101781100  1.8579266097341431
  2.4830162277647174  9.7282308183800090  1.9254553545342927
  8.0758174362984647  9.7282310198519681  1.8579272766674886
  2.2739684350397713  1.0453583969922549  7.0234829533143897
  7.8667696471671116  1.0453586002649875  6.9559548694871376
  2.2739685969433920  9.7282313096757420  7.0234836127355802
  7.8667698049737504  9.7282315112677065  6.9559555348495730
  3.0053049906918679  5.3867941807217861  0.5560668302571561
  8.5981062042996186  5.3867943866853789  0.4885387444436508
  3.0053051492463645 14.0696670921044298  0.5560674938318555
  8.5981063624634473 14.0696672981083033  0.4885394095796454
  2.7962573582172032  5.3867946701507652  5.6540950900806601
  8.3890585728228508  5.3867948754126944  5.5865670026876613
  2.7962575172051372 14.0696675814517072  5.6540957536648317
  8.3890587305444502 14.0696677871780480  5.5865676690309645
  2.3784919192442842  3.2960156232726741  4.4744695364931149
  7.9712931300970329  3.2960158309608811  4.4069414555651596
  2.3784920779783283 11.9788885346796690  4.4744702008633039
  7.9712932884507151 11.9788887421765704  4.4069421195403171
  2.1694442872291164  3.2960161138373825  9.5724977973604304
  7.7622454989389977  3.2960163207912112  9.5049697150930843
  2.1694444461288755 11.9788890249386721  9.5724984609399986
  7.7622456572815279 11.9788892321755451  9.5049703789129740
  1.2391535862492837  0.6649735531462242  3.1146342507681779
  6.8319548031585136  0.6649737380779949  3.0471061763094376
  1.2391537440698812  9.3478464832908621  3.1146348979308440
  6.8319549623926976  9.3478466549009251  3.0471068375938750
  1.0301059538547968  0.6649740412291605  8.2126625108081814
  6.6229071705582365  0.6649742339412658  8.1451344300959025
  1.0301061122216892  9.3478469764675065  8.2126631553800600
  6.6229073306772674  9.3478471393153910  8.1451351020267246
  4.1446438463299771  8.0178359802450245  1.9159011143684466
  9.7374450641296679  8.0178362128019387  1.8483730035848791
  4.1446440049080584 16.7007089074228112  1.9159017672646883
  9.7374452221921164 16.7007090949009864  1.8483736900035237
  3.9355962146695043  8.0178364576434564  7.0139293853487183
  9.5283974326174601  8.0178366811331987  6.9464012819668728
  3.9355963723841607 16.7007093969568849  7.0139300269843750
  9.5283975896400435 16.7007095907386294  6.9464019443902512
  1.3436772024020025  3.6763994975117256  0.5656211208917002
  6.9364784195753817  3.6763997145498220  0.4980930410116079
  1.3436773607806121 12.3592724146128532  0.5656217901080445
  6.9364785786360468 12.3592726200168901  0.4980937011947422
  1.1346295698792417  3.6763999999669155  5.6636493901647968
  6.7274307870442636  3.6764002230739883  5.5961213154702252
  1.1346297278793149 12.3592729112315656  5.6636500539277392
  6.7274309457860113 12.3592731250520753  5.5961219717907982
  4.0401198043039326  5.0064101762119648  4.4649154368606752
  9.6329210209568465  5.0064103642123898  4.3973873320437429
  4.0401199621990509 13.6892830827854759  4.4649160961813523
  9.6329211799044856 13.6892832774820636  4.3973879984568738
  3.8310721726852641  5.0064106479440458  9.5629436818541436
  9.4238733893074258  5.0064108454586549  9.4954155850547810
  3.8310723307907888 13.6892835650118290  9.5629443507106533
  9.4238735485028560 13.6892837573926140  9.4954162512263665
  2.2624121322952497  7.4582664841043771  3.8556148765565443
  7.8552133511007778  7.4582666849015675  3.7880867886625427
  2.2624122867479985 16.1411393933508513  3.8556155442894808
  7.8552135127660003 16.1411395960255497  3.7880874510564690
  2.0533645010386636  7.4582669739642258  8.9536431342134897
  7.6461657207097229  7.4582671739103663  8.8861150466187286
  2.0533646546008240 16.1411398830544108  8.9536438038526960
  7.6461658802824628 16.1411400862938628  8.8861157100834536
  3.1213854468795112  1.2245432632346709  1.1749207005219360
  8.7141866739325025  1.2245434655944671  1.1073926069726276
  3.1213856020910469  9.9074161735576105  1.1749213696634644
  8.7141868332182550  9.9074163787391303  1.1073932671237379
  2.9123378150969921  1.2245437534037522  6.2729489603459649
  8.5051390417257338  1.2245439563049598  6.2054208665985042
  2.9123379685960367  9.9074166627158320  6.2729496321391514
  8.5051392003083865  9.9074168670153728  6.2054215299600681
  2.3669356639925585  5.5659796561290422  1.3066008608469968
  7.9597368866440084  5.5659798635465085  1.2390727689368417
  2.3669358214907210 14.2488525676644393  1.3066015264024848
  7.9597370465724229 14.2488527749394898  1.2390734317311536
  2.1578880328813081  5.5659801470911479  6.4046291214015731
  7.7506892537693579  5.5659803550125391  6.3371010314640293
  2.1578881899164970 14.2488530578929762  6.4046297867668738
  7.7506894144980079 14.2488532657858400  6.3371016931797621
  3.0168611496427431  3.1168303034983995  3.7239354296076295
  8.6096623787045417  3.1168305085001919  3.6564073309620997
  3.0168613081267250 11.7997032139061275  3.7239360935384735
  8.6096625365492780 11.7997034205045672  3.6564079953895940
  2.8078135187154265  3.1168307917541620  8.8219636870388261
  8.4006147458855835  3.1168309974678610  8.7544355905755182
  2.8078136762826547 11.7997037029066014  8.8219643525839473
  8.4006149038223175 11.7997039092677429  8.7544362549712389
