 H  C  N 
 1.0000000000000000
    -6.9879221608785764    6.9879221608785764    6.9879221608785764
     6.9879221608785764   -6.9879221608785764    6.9879221608785764
     6.9879221608785764    6.9879221608785764   -6.9879221608785764
 H   C   N  
  96  48  32
Cartesian
  2.6564520785280528  0.9542543694649369 -0.3129021730069652
 -0.8375090019112393  4.4482154499042084  3.1810589074323423
  6.1504131589674476 -2.5397067109742202  3.1810589074321940
  2.6564520785280932  0.9542543694649802  6.6750199878715684
  6.1504131589674298  4.4482154499043247 -3.8068632534463513
  2.6564520785281527  7.9421765303436329 -0.3129021730070834
  9.6443742394067069  0.9542543694650207 -0.3129021730070466
  6.1504131589674333  4.4482154499043327  3.1810589074322126
 -0.3129021730070046  2.6564520785280883  0.9542543694649792
 -3.8068632534463616  6.1504131589674342  4.4482154499043327
  3.1810589074323476 -0.8375090019112410  4.4482154499042048
 -0.3129021730069315  2.6564520785280372  7.9421765303434784
  3.1810589074322144  6.1504131589674351 -2.5397067109742451
 -0.3129021730070107  9.6443742394066714  0.9542543694649797
  6.6750199878715719  2.6564520785280958  0.9542543694649734
  3.1810589074322926  6.1504131589673756  4.4482154499042501
  4.9728232083380828  0.9542544424962532  0.9542544424962568
  1.4788621278988425  4.4482155229354765  4.4482155229354738
  8.4667842887773759 -2.5397066379430639  4.4482155229355129
  4.9728232083381414  0.9542544424961686  7.9421766033747447
  8.4667842887773794  4.4482155229355111 -2.5397066379430644
  4.9728232083381592  7.9421766033747199  0.9542544424961470
 11.9607453692167063  0.9542544424961936  0.9542544424961936
  8.4667842887773546  4.4482155229355467  4.4482155229355493
 -0.3129021730069810  0.9542543694649543  2.6564520785280665
 -3.8068632534463176  4.4482154499042901  6.1504131589673996
  3.1810589074321909 -2.5397067109742189  6.1504131589674520
 -0.3129021730069492  0.9542543694649195  9.6443742394066270
  3.1810589074322917  4.4482154499042625 -0.8375090019112075
 -0.3129021730070669  7.9421765303436178  2.6564520785281407
  6.6750199878715684  0.9542543694649767  2.6564520785280865
  3.1810589074322966  4.4482154499042528  6.1504131589673667
  0.9542543694649798  2.6564520785280878 -0.3129021730070087
 -2.5397067109743485  6.1504131589673579  3.1810589074323183
  4.4482154499043451 -0.8375090019111368  3.1810589074322042
  0.9542543694650653  2.6564520785281545  6.6750199878714849
  4.4482154499042332  6.1504131589673579 -3.8068632534462603
  0.9542543694649943  9.6443742394066838 -0.3129021730070246
  7.9421765303435974  2.6564520785281287 -0.3129021730070450
  4.4482154499043105  6.1504131589674147  3.1810589074322380
  0.9542543694649767 -0.3129021730070065  2.6564520785280776
 -2.5397067109743174  3.1810589074322904  6.1504131589673765
  4.4482154499041942 -3.8068632534462226  6.1504131589673277
  0.9542543694650572 -0.3129021730070859  9.6443742394067264
  4.4482154499042572  3.1810589074322873 -0.8375090019112058
  0.9542543694649449  6.6750199878716039  2.6564520785280710
  7.9421765303435441 -0.3129021730069951  2.6564520785280790
  4.4482154499042847  3.1810589074322611  6.1504131589673943
  1.4788634623647483  3.1810592082026701  3.1810592082026732
 -2.0150976180744804  6.6750202886420382  6.6750202886420382
  4.9728245428040116 -0.3129018722366461  6.6750202886419290
  1.4788634623647123  3.1810592082026479 10.1689813690812265
  4.9728245428040028  6.6750202886419130 -0.3129018722366648
  1.4788634623647132 10.1689813690812265  3.1810592082026470
  8.4667856232433092  3.1810592082026772  3.1810592082026758
  4.9728245428040436  6.6750202886419681  6.6750202886419698
  3.1810592082026807  1.4788634623647527  3.1810592082026812
 -0.3129018722366053  4.9728245428040427  6.6750202886419707
  6.6750202886419059 -2.0150976180745883  6.6750202886419050
  3.1810592082027127  1.4788634623647665 10.1689813690812922
  6.6750202886420285  4.9728245428040951 -0.3129018722365514
  3.1810592082026594  8.4667856232433127  3.1810592082026630
 10.1689813690813491  1.4788634623648227  3.1810592082027753
  6.6750202886420347  4.9728245428040969  6.6750202886420373
  0.9542544424961649  4.9728232083381405  0.9542544424961650
 -2.5397066379430102  8.4667842887773386  4.4482155229355698
  4.4482155229354925  1.4788621278988288  4.4482155229354916
  0.9542544424962073  4.9728232083381112  7.9421766033747883
  4.4482155229355742  8.4667842887773475 -2.5397066379430062
  0.9542544424962498 11.9607453692166672  0.9542544424962487
  7.9421766033748025  4.9728232083381112  0.9542544424962232
  4.4482155229354898  8.4667842887774043  4.4482155229354872
  2.6564520785281056 -0.3129021730070340  0.9542543694650052
 -0.8375090019111434  3.1810589074322091  4.4482154499043380
  6.1504131589673463 -3.8068632534462399  4.4482154499042110
  2.6564520785280958 -0.3129021730070153  7.9421765303435601
  6.1504131589673650  3.1810589074323055 -2.5397067109743348
  2.6564520785280581  6.6750199878716217  0.9542543694649267
  9.6443742394066891 -0.3129021730070232  0.9542543694649900
  6.1504131589673561  3.1810589074323188  4.4482154499042297
  0.9542544424961830  0.9542544424961830  4.9728232083381316
 -2.5397066379429973  4.4482155229355795  8.4667842887773404
  4.4482155229354898 -2.5397066379430888  8.4667842887774167
  0.9542544424962560  0.9542544424962536 11.9607453692166530
  4.4482155229355369  4.4482155229355360  1.4788621278987988
  0.9542544424961529  7.9421766033747323  4.9728232083381529
  7.9421766033747607  0.9542544424961835  4.9728232083381316
  4.4482155229355094  4.4482155229355032  8.4667842887773830
  3.1810592082027371  3.1810592082027394  1.4788634623647980
 -0.3129018722366713  6.6750202886419032  4.9728245428039894
  6.6750202886419530 -0.3129018722366228  4.9728245428040294
  3.1810592082026496  3.1810592082026541  8.4667856232432968
  6.6750202886419387  6.6750202886419370 -2.0150976180745648
  3.1810592082027633 10.1689813690813438  1.4788634623648118
 10.1689813690812816  3.1810592082027065  1.4788634623647785
  6.6750202886420134  6.6750202886420134  4.9728245428040720
  2.0320421068942518  0.3206766890918243  0.3206766890916319
 -1.4619189735451024  3.8146377695312030  3.8146377695308096
  5.5260031873334254 -3.1732843913477962  3.8146377695312479
  2.0320421068942038  0.3206766890917496  7.3085988499702959
  5.5260031873334183  3.8146377695309144 -3.1732843913474635
  2.0320421068941457  7.3085988499701164  0.3206766890919212
  9.0199642677726679  0.3206766890917014  0.3206766890917644
  5.5260031873334423  3.8146377695308673  3.8146377695311706
  0.3206766890917124  2.0320421068942207  0.3206766890917335
 -3.1732843913474031  5.5260031873334308  3.8146377695308531
  3.8146377695308145 -1.4619189735451026  3.8146377695312315
  0.3206766890914926  2.0320421068941812  7.3085988499705401
  3.8146377695311529  5.5260031873334237 -3.1732843913476887
  0.3206766890917097  9.0199642677727478  0.3206766890917586
  7.3085988499702568  2.0320421068941323  0.3206766890917793
  3.8146377695309237  5.5260031873334388  3.8146377695311142
  5.5972339188781337  0.3206766199871735  0.3206766199871728
  2.1032728384388748  3.8146377004266472  3.8146377004266538
  9.0911949993175867 -3.1732844604519528  3.8146377004266161
  5.5972339188781781  0.3206766199874264  7.3085987808660127
  9.0911949993175796  3.8146377004266143 -3.1732844604519417
  5.5972339188781657  7.3085987808660784  0.3206766199874967
 12.5851560797567128  0.3206766199873306  0.3206766199873291
  9.0911949993175938  3.8146377004265237  3.8146377004265153
  0.3206766890916763  0.3206766890917714  2.0320421068942838
 -3.1732843913475217  3.8146377695309788  5.5260031873334672
  3.8146377695312372 -3.1732843913477939  5.5260031873334459
  0.3206766890915124  0.3206766890919397  9.0199642677727407
  3.8146377695310196  3.8146377695310139 -1.4619189735450504
  0.3206766890918679  7.3085988499701671  2.0320421068941426
  7.3085988499703207  0.3206766890917063  2.0320421068942354
  3.8146377695309690  3.8146377695310618  5.5260031873334823
  0.3206766199874889  5.5972339188782270  0.3206766199874948
 -3.1732844604521082  9.0911949993175600  3.8146377004264735
  3.8146377004266117  2.1032728384388881  3.8146377004266179
  0.3206766199873183  5.5972339188781843  7.3085987808658892
  3.8146377004263781  9.0911949993174304 -3.1732844604522206
  0.3206766199871469 12.5851560797566897  0.3206766199871629
  7.3085987808657880  5.5972339188780769  0.3206766199872224
  3.8146377004266476  9.0911949993175067  3.8146377004266636
  0.3206766199873826  0.3206766199874046  5.5972339188781852
 -3.1732844604522130  3.8146377004263612  9.0911949993174677
  3.8146377004265868 -3.1732844604519879  9.0911949993174055
  0.3206766199871818  0.3206766199871962 12.5851560797567625
  3.8146377004264660  3.8146377004264647  2.1032728384388522
  0.3206766199874678  7.3085987808660473  5.5972339188782092
  7.3085987808659549  0.3206766199873723  5.5972339188781586
  3.8146377004266245  3.8146377004266263  9.0911949993175689
  1.1989151278124637  1.1989151278124290  1.1989151278124468
 -2.2950459526268689  4.6928762082517359  4.6928762082518123
  4.6928762082517634 -2.2950459526267428  4.6928762082516746
  1.1989151278125363  1.1989151278124213  8.1868372886910006
  4.6928762082517466  4.6928762082517874 -2.2950459526268343
  1.1989151278124532  8.1868372886911018  1.1989151278124319
  8.1868372886910699  1.1989151278124806  1.1989151278124233
  4.6928762082517785  4.6928762082517741  4.6928762082516986
  2.9364000004464526 -2.2950463900059361  2.9364000004463646
 -0.5575610799928500  1.1989146904332737  6.4303610808856080
  6.4303610808857341 -5.7890074704452452  6.4303610808856808
  2.9364000004463420 -2.2950463900059361  9.9243221613250459
  6.4303610808856861  1.1989146904333343 -0.5575610799928770
  2.9364000004464437  4.6928757708726305  2.9364000004463864
  9.9243221613249215 -2.2950463900059703  2.9364000004464033
  6.4303610808856861  1.1989146904332950  6.4303610808856728
  2.9364000004463922  2.9364000004463726 -2.2950463900059654
 -0.5575610799929379  6.4303610808856835  1.1989146904332801
  6.4303610808856915 -0.5575610799928655  1.1989146904333390
  2.9364000004464046  2.9364000004463815  4.6928757708725968
  6.4303610808857403  6.4303610808856853 -5.7890074704452514
  2.9364000004464001  9.9243221613250245 -2.2950463900059113
  9.9243221613248966  2.9364000004464308 -2.2950463900059739
  6.4303610808857465  6.4303610808856426  1.1989146904333172
 -2.2950463900059108  2.9364000004463717  2.9364000004464934
 -5.7890074704452168  6.4303610808857181  6.4303610808857306
  1.1989146904333228 -0.5575610799928731  6.4303610808857066
 -2.2950463900059184  2.9364000004464859  9.9243221613249233
  1.1989146904332912  6.4303610808857039 -0.5575610799929427
 -2.2950463900059352  9.9243221613249712  2.9364000004463913
  4.6928757708726376  2.9364000004464526  2.9364000004463855
  1.1989146904333139  6.4303610808856702  6.4303610808856835
