 C  H 
 1.0000000000000000
    22.0000000000000000    0.0000000000000000    0.0000000000000000
     0.0000000000000000   22.0000000000000000    0.0000000000000000
     0.0000000000000000    0.0000000000000000   22.0000000000000000
 C   H  
  10  16
Cartesian
  6.3197184566790110  6.3195450871993692  5.6681472953386649
  6.3192846205133550  6.3194564500226562  9.2498519356550997
  6.4870480565967608  7.5773679746812119  6.5617747423167998
  5.0615478637503903  6.4869164048630852  8.3561276835154832
  6.1521723859482176  5.0616779736560140  6.5616719247478263
  7.5772378474028974  6.1520407236872474  8.3564241104226458
  5.2313427262224019  7.7418447757665261  7.4589030106360621
  4.8971575455134513  5.2313419540218362  7.4588004041540632
  7.4076603509910237  4.8971567626370707  7.4590962200309630
  7.7418455310337109  7.4076595854445033  7.4591988262631865
  5.4458097857503871  6.4359019252043135  5.0166714958429317
  6.2028650071690263  5.4454527548820835  9.9011890303096770
  7.1937849238716751  6.2032204883385598  5.0168774628466881
  6.4355464384886361  7.1934279040458664  9.9012604738109982
  6.6051497113638771  8.4640244094782915  5.9293310274128688
  4.1748304771162275  6.6049258022818034  8.9885031610360748
  6.0342239488053329  4.1750528428417715  5.9291557352594593
  8.4638020150460154  6.0340000226219663  8.9890085366430732
  4.3404665398845088  7.8803749238595904  6.8353446617088895
  4.7585673126515555  4.3403748174011421  8.0822154383505502
  8.2986875692729765  4.7586574724853365  6.8357468483697783
  7.8802847298579826  8.2985958643288207  8.0826915140407767
  5.3306437929113688  8.6379909220815332  8.0823910852354430
  4.0010714933689320  5.3307339695955962  6.8352404548754340
  7.3082082533991057  4.0009797590612237  8.0825158660027157
  8.6380826163829845  7.3082984295097928  6.8358510551847944
