 C  O  H 
 1.0000000000000000
    11.4359923123306846    0.0000001929686733    0.0871899759753594
     0.0000002274962562    6.5933876970928758   -0.0000002725953905
    -1.0841649667718658   -0.0000003694566473   11.2691518588567039
 C   O   H  
  36  16  32
Cartesian
  1.7066005243236739  3.6581763670209049  0.7751229065763755
  9.1873091578539245  0.3614825867567732  4.9466418877046099
  8.6452266501635862  2.9352104948180626 10.5812177253684929
  1.1645180813498421  6.2319044396602079  6.4096987523856921
  2.8411970359200565  3.1440481083584420  0.1087847654992511
  8.0527129409771518  6.4407420288241184  5.6129798684588685
  7.5106301835851683  3.4493387718887774 11.2475559255142059
  2.2991143445710756  0.1526449350008232  5.7433607969991209
  3.4046262792310924  1.9239347861339438  0.4718613670929621
  7.4892836554304072  5.2206287058411327  5.2499033348685682
  6.9472009027577473  4.6694520705734632 10.8844793158206823
  2.8625436451502400  1.3727582598537935  6.1064373008949806
  2.8588531709257308  1.1912242853211759  1.5295982426261527
  8.0350566490680695  4.4879181971477182  4.1921664105589604
  7.4929739163743081  5.4021625226176306  9.8267423593035748
  2.3167706311974383  2.1054688232259284  7.1641741781479169
  1.7427388006281193  1.6804649848480666  2.2158815452970764
  9.1511709589523473  4.9771588860937763  3.5058830023530136
  8.6090882497746968  4.9129218136568520  9.1404590052225938
  1.2006562791217528  1.6162281921141188  7.8504575630798961
  1.1733817072503572  2.8925645255583770  1.8350256921385610
  9.7205281044525673  6.1892584200627336  3.8867387975383045
  9.1784453911221213  3.7008223025912605  9.5213148795010554
  0.6312991119473019  0.4041286608066090  7.4696017915154895
  1.0094581547574932  4.9370202968472929  0.4482927238410564
  9.8844515561933175  1.6403265358622052  5.2734719551719627
  9.3423690184710946  1.6563665554321729 10.9080478776078724
  0.4673756575101015  4.9530605002876724  6.0828686943637038
  3.2405149301584975  4.8454557589296838 10.5777288747401865
  6.5692298305873305  1.5487622427685415  6.4131880755010178
  7.1113123134685461  1.7479311671420081  0.7786119501418379
  3.7825974582028201  5.0446246265204753  4.9431528271971699
  3.7245833090841125  5.5125837958668251  9.3184088552443782
  6.0851610200497470  2.2158897669057360  7.6725082089124745
  6.6272438685458352  1.0808032780484096  2.0379320272579218
  4.2666659902020552  4.3774966782202922  3.6838328208543429
  0.4142749662893546  5.6253037383400413 10.6694409293538097
  9.3954698359724880  2.3286104136323522  6.3214755924440826
  9.9375521974475021  0.9680830921170023  0.6868996513606733
  0.9563574022634754  4.2647765805331730  5.0348650997876705
  0.0323942607127261  5.3339701234797738  1.1002446138502551
 10.8615154137472736  2.0372763239142224  4.6215199859842526
 10.3194329043752067  1.2594167278532702 10.2560959740899662
 -0.5096882418180261  4.5561107638764629  6.7348206299889348
  2.3513525685938661  3.8136102684514563 10.2800584061491929
  7.4583923223551611  0.5169168339006461  6.7108584317867805
  8.0004747165636800  2.7797766484207598  1.0762823414402904
  2.8934350023634443  6.0764700316473590  4.6454823165406376
  4.6406902826800929  5.1236571947099936  0.4480417714885265
  6.2532195344277630  1.8269635109985587  5.2737233453997456
  5.7111369555468610  1.4697296552807644 10.9082990746023363
  4.0986078443425153  4.7664236074847661  6.0826175936252378
  3.1848418300035957  1.5644397848905021 11.1966312845611711
  6.6249032095754714  4.8611340598349209  5.7942853859014534
  7.1669853946824258  5.0289470898319788  0.1597094556467220
  3.7269241358115690  1.7322528496107965  5.5620552846503291
  3.3027083605059966  0.2438999422882620  1.8076754405054962
  7.5912014318806191  3.5405938504052958  3.9140892680703123
  7.0491186828776407  6.3494868384332470  9.5486651425075415
  2.7606258767348164  3.0527931605038257  7.4422513127327834
  1.3153287837379046  1.1224209729163837  3.0377809973881256
  9.5785808890828577  4.4191148679190322  2.6839835124420426
  9.0364981972712108  5.4709657961947755  8.3185594970358974
  0.7732463330849365  2.1742722560710135  8.6723570154512082
  0.3018546392904766  3.2669380494548492  2.3529093394692420
 10.5920549155307349 -0.0297557772437141  3.3688553542985660
 10.0499724302006523  3.3264487683506121  9.0034311917672074
 -0.2402277314271560  6.6231429046553245  7.9874852124930049
  4.3325196864505280  6.3758043786335827  9.5812153491885361
  5.4772260035609124  3.0791113598169817  7.4097018623827466
  6.0193078048820441  0.2175824440759835  1.7751256148200310
  4.8746019059659549  3.5142757759721088  3.9466393344016435
  2.8722335544071336  5.8140122547310922  8.7084687288042133
  6.9375103833820129  2.5173164486670792  8.2824497233527019
  7.4795935554472823  0.7793752562771438  2.6478724567522951
  3.4143163751988199  4.0760687767219510  3.0738922382803895
  4.3150786619301194  4.8118036199546026  8.7235535881146884
  5.4946639507627779  1.5151097425231717  8.2673619808071575
  6.0367481294616114  1.7815834359158009  2.6327869419586136
  4.8571619240372259  5.0782767651378693  3.0889780133085885
 -0.1465088981212601  6.4439294837079926 10.5295583189495936
  9.9562537086993732  3.1472361671000235  6.4613581169175527
 10.4983360495125098  0.1494573345953824  0.8267822424465443
  0.3955734976602055  3.4461508552206492  4.8949825505767182
