 C  H  N  O 
 1.0000000000000000
    26.2090485827059396    0.0000000000000000    0.0000000000000000
     0.0000000000000000   19.3022758698377430    0.0000000000000000
     0.0000000000000000    0.0000000000000000    7.7000549034202708
 C   H   N   O  
 128 160  96  32
Cartesian
 12.8966480140464945  1.5239793283520580  1.2761156465688377
 26.0011723393259331  1.5239792983927671  1.2761156698332614
 12.8966479910657537 11.1751172904291636  1.2761156301359069
 26.0011722769515501 11.1751172487822004  1.2761156328939123
 12.8966480239589441  1.5239793447378971  5.1261431012864644
 26.0011723356574329  1.5239792906186684  5.1261431206352475
 12.8966479912911325 11.1751172797276315  5.1261430838932904
 26.0011722731977919 11.1751172324145767  5.1261430852063743
  6.7601502218183134  8.1271541977293591  3.2011297542351884
 19.8646745318427307  8.1271541901832407  3.2011297435705006
  6.7601502702097420 17.7782921756049319  3.2011297333326021
 19.8646745440233410 17.7782921496228710  3.2011297409928803
  6.7601502159584355  8.1271541865558170  7.0511572081452671
 19.8646745431588521  8.1271541947551427  7.0511571889112465
  6.7601502450502791 17.7782921561705400  7.0511571973575702
 19.8646745431620637 17.7782921425967331  7.0511571919639309
  0.2078875675579847  6.3495486961735121  0.6489076753552069
 13.3124118591387948  6.3495487330053768  0.6489076805797342
  0.2078875287005650 16.0006866737451574  0.6489076592425229
 13.3124118484230056 16.0006866560689680  0.6489076724867886
  0.2078875646593831  6.3495486957239651  4.4989351255643601
 13.3124118698880309  6.3495487219742159  4.4989351365068284
  0.2078875449309574 16.0006866384219713  4.4989351142755556
 13.3124118403614968 16.0006866596286663  4.4989351199151013
  6.3443850775267432  3.3015848628115867  2.5739208546846242
 19.4489093415720298  3.3015848982216593  2.5739208647413196
  6.3443850966568229 12.9527228424714576  2.5739208377257614
 19.4489094008637160 12.9527228099349276  2.5739208357862329
  6.3443850729355047  3.3015848700730062  6.4239483088411591
 19.4489093465918153  3.3015848927375271  6.4239483139914304
  6.3443850871276970 12.9527228582447371  6.4239482932434449
 19.4489094059749519 12.9527228114966011  6.4239482837070954
  1.7139477772940195  2.5719903667526500  2.1391136951598595
 14.8184720525175369  2.5719903523366368  2.1391136882124728
  1.7139477445976083 12.2231282126536502  2.1391136907076187
 14.8184720550129683 12.2231282020538714  2.1391137020689910
  1.7139477640576588  2.5719903677936888  5.9891411400870842
 14.8184720565768924  2.5719903394491070  5.9891411441693041
  1.7139477427654761 12.2231282147852607  5.9891411406459172
 14.8184720577384272 12.2231282080956269  5.9891411538939359
  4.8383264408982267  7.0791429212643067  0.2141000745771829
 17.9428507141662585  7.0791428859132521  0.2141000790167399
  4.8383264113898825 16.7302807859721234  0.2141000792027703
 17.9428506589918939 16.7302807617828719  0.2141000983581449
  4.8383264469203482  7.0791429113669366  4.0641275224523712
 17.9428507170025533  7.0791428707823174  4.0641275258510143
  4.8383264209161574 16.7302807997404557  4.0641275292014916
 17.9428506667215544 16.7302807657843111  4.0641275468613607
 11.3905883346992436  7.3975594789324202  3.6359359884479407
 24.4951125697611012  7.3975595560087344  3.6359359714675259
 11.3905882882020730 17.0486974441919621  3.6359359703699288
 24.4951125934239720 17.0486974779655043  3.6359359807148137
 11.3905883199310995  7.3975594840788252  7.4859634330055398
 24.4951125681067339  7.3975595501822200  7.4859634215817099
 11.3905883014449145 17.0486974392838242  7.4859634283197778
 24.4951125762750763 17.0486974761120997  7.4859634229569316
  8.2662086810313937  2.2535738848500002  1.7109220037408102
 21.3707329758255469  2.2535738371217060  1.7109220067925153
  8.2662086915190134 11.9047117573298085  1.7109220056159906
 21.3707329890193449 11.9047117190516101  1.7109220085253791
  8.2662086715012197  2.2535738818524047  5.5609494600362757
 21.3707329919271203  2.2535738392872027  5.5609494505562180
  8.2662086852144689 11.9047117454689602  5.5609494620025348
 21.3707330040260501 11.9047117135822500  5.5609494541122766
  2.2529663394465009  1.3221310363900609  2.5927514636990505
 15.3574906743026993  1.3221310819892351  2.5927514805409966
  2.2529663505797362 10.9732689126019860  2.5927514783200492
 15.3574906313105863 10.9732689304682864  2.5927514712233846
  2.2529663413178969  1.3221310322798223  6.4427789169440279
 15.3574906629568222  1.3221310683066390  6.4427789290577726
  2.2529663495675187 10.9732689059075277  6.4427789299132874
 15.3574906242430131 10.9732689169996505  6.4427789207040806
  4.2993073417578334  8.3290021798755749  0.6677370643017246
 17.4038315810157265  8.3290021598894395  0.6677370897875675
  4.2993073080913176 17.9801401529769009  0.6677370872049491
 17.4038315992975434 17.9801401920534509  0.6677370937156953
  4.2993073267212250  8.3290021640910759  4.5177645219581031
 17.4038315625481239  8.3290021366011562  4.5177645465871521
  4.2993072777526988 17.9801401418843128  4.5177645542366491
 17.4038315914645949 17.9801401927395332  4.5177645495751397
 10.8515691489843782  6.1476999498127292  3.1822999279635207
 23.9560934544309561  6.1476999473401595  3.1822999346844276
 10.8515691771108891 15.7988378026279843  3.1822999311202804
 23.9560934221470063 15.7988378635194859  3.1822999152885219
 10.8515691492112065  6.1476999412580566  7.0323273782502120
 23.9560934748729117  6.1476999321983969  7.0323273950253942
 10.8515691536520205 15.7988378272050980  7.0323273740115395
 23.9560934106468437 15.7988378757593377  7.0323273616619053
  8.8052278236337642  3.5034332557414158  1.2572855880955898
 21.9097521296082327  3.5034332215262451  1.2572855845507798
  8.8052278255660923 13.1545711551071616  1.2572855918981174
 21.9097521589339799 13.1545710704869485  1.2572855810043686
  8.8052278445354091  3.5034332369985646  5.1073130308812207
 21.9097521016203949  3.5034332554020078  5.1073130462595691
  8.8052278702251439 13.1545711240605190  5.1073130246441885
 21.9097521355784046 13.1545710916633052  5.1073130426957318
  1.5075384086160390  0.2055471822919738  2.3640107194387503
 14.6120627206051399  0.2055471093114316  2.3640107415259015
  1.5075384545886770  9.8566851156569530  2.3640107452019987
 14.6120627878973934  9.8566851315337765  2.3640107630911720
  1.5075383965400178  0.2055471679150558  6.2140381667094351
 14.6120627299385397  0.2055471409415354  6.2140381915731426
  1.5075384428479806  9.8566851024685569  6.2140381940338001
 14.6120627913984489  9.8566851260962292  6.2140382188449532
  5.0447347383322230  9.4455862398197716  0.4389960754350612
 18.1492590807799488  9.4455862821428767  0.4389960528262167
  5.0447347756773508 19.0967242061693732  0.4389960623014665
 18.1492590537904910 19.0967241766811924  0.4389960633553084
  5.0447347525445334  9.4455862651160274  4.2890235219243262
 18.1492591137712438  9.4455862794262586  4.2890234899733990
  5.0447347787656103 19.0967242678650813  4.2890235180024057
 18.1492590613884346 19.0967241899852702  4.2890235124954019
 11.5969968915093098  5.0311161366724004  3.4110411852966074
 24.7015211841479996  5.0311161599386516  3.4110411901048199
 11.5969968577477136 14.6822541165263534  3.4110411719416680
 24.7015211970096580 14.6822540212500297  3.4110411860333976
 11.5969968934472547  5.0311161707160039  7.2610686445282955
 24.7015211717354042  5.0311161789037380  7.2610686371486235
 11.5969968685160705 14.6822540808043573  7.2610686240350795
 24.7015212111227491 14.6822540718478578  7.2610686565092699
  8.0598005662525480  4.6200171341902898  1.4860272258683400
 21.1643247879819967  4.6200171278872562  1.4860272691872189
  8.0598005303866351 14.2711550926477013  1.4860272449278060
 21.1643247591600669 14.2711550883356715  1.4860272808054071
  8.0598005545252125  4.6200171644264945  5.3360546813466350
 21.1643248105321717  4.6200170934712546  5.3360547125291733
  8.0598005022453716 14.2711551451515621  5.3360547044784816
 21.1643247686070524 14.2711550603823625  5.3360547298298791
 12.9733187659807090  9.0745524094050101  1.3832663474308946
 26.0778430690045653  9.0745524218488214  1.3832663559926515
 12.9733187809791737 18.7256903477656316  1.3832663563202532
 26.0778430951824269 18.7256903733315845  1.3832663722827472
 12.9733187685284577  9.0745524149119277  5.2332938009056811
 26.0778430733183448  9.0745524310288292  5.2332938103221487
 12.9733187803104606 18.7256903466774212  5.2332938080811804
 26.0778430982258769 18.7256903750116592  5.2332938261717095
  6.6834795292189462  0.5765812160631352  3.3082799302013255
 19.7880038111418735  0.5765812076578893  3.3082799375209015
  6.6834795235613758 10.2277191602417314  3.3082799348108280
 19.7880038137375038 10.2277191741335525  3.3082799346132665
  6.6834795208418880  0.5765812122390582  7.1583073873025853
 19.7880038125826729  0.5765812094399444  7.1583073883279127
  6.6834795241607532 10.2277191599172337  7.1583073863854763
 19.7880038196763053 10.2277191693004816  7.1583073835376450
  0.1312177332763655  4.2489836890792443  0.5417568026011093
 13.2357420319593544  4.2489836723035790  0.5417568076730497
  0.1312177328486535 13.9001216136402839  0.5417568033952087
 13.2357420331369937 13.9001216225316355  0.5417568087008826
  0.1312177338892130  4.2489836855515071  4.3917842548701627
 13.2357420340624916  4.2489836748276142  4.3917842610793913
  0.1312177331192775 13.9001216282016422  4.3917842550443478
 13.2357420289468433 13.9001216286436229  4.3917842570319472
  6.4210565800250397  5.4021498832958583  2.4667715602284295
 19.5255808857123370  5.4021498781501593  2.4667715507209271
  6.4210565977611553 15.0532878034042561  2.4667715480427077
 19.5255808973553862 15.0532878175418539  2.4667715429670620
  6.4210565779258246  5.4021498881557442  6.3167990135676781
 19.5255808869666758  5.4021498735363895  6.3167990012306516
  6.4210565951090626 15.0532878091320637  6.3167990022506233
 19.5255809017012432 15.0532878092218514  6.3167989915639522
  2.0266906367950086  4.6018872219461091  2.0247848328519433
 15.1312149151543824  4.6018872712961363  2.0247848185755037
  2.0266906181884630 14.2530252140048859  2.0247848155578465
 15.1312149113162420 14.2530252232567989  2.0247848147103267
  2.0266906341484892  4.6018872261289117  5.8748122826112201
 15.1312149146401094  4.6018872744735502  5.8748122693857923
  2.0266906157706250 14.2530252171085046  5.8748122655335830
 15.1312149130631095 14.2530252176256251  5.8748122682278412
  4.5255829532019431  5.0492463755941603  0.0997696510542802
 17.6301072464755926  5.0492463767391271  0.0997696502903489
  4.5255829523204305 14.7003843240832452  0.0997696537373274
 17.6301072370706926 14.7003843355764108  0.0997696585045638
  4.5255829546908704  5.0492463753377841  3.9497971020833913
 17.6301072448419802  5.0492463857420651  3.9497971040759712
  4.5255829608448899 14.7003843008951005  3.9497970977944812
 17.6301072405228290 14.7003843286034854  3.9497971074353631
 11.0778446560594102  9.4274558357440714  3.7502676301546818
 24.1823689215515074  9.4274557632797240  3.7502676067905316
 11.0778446446814289 19.0785937497152389  3.7502676213822497
 24.1823689380378859 19.0785937446881491  3.7502676216427751
 11.0778446508770596  9.4274558210037824  7.6002950770512090
 24.1823689210273223  9.4274557641598555  7.6002950581791424
 11.0778446511432893 19.0785937667130590  7.6002950790592987
 24.1823689313300250 19.0785937270372266  7.6002950672724623
  8.5789525074721951  0.2236775791687065  1.8252547115526352
 21.6834768102574387  0.2236776169542381  1.8252547003356618
  8.5789525194948304  9.8748155527855079  1.8252547000990751
 21.6834768217827829  9.8748155856228426  1.8252546899403193
  8.5789525051455122  0.2236775743374495  5.6752821647883165
 21.6834768148913497  0.2236776255077033  5.6752821485395266
  8.5789525160691547  9.8748155478607558  5.6752821541862399
 21.6834768268540614  9.8748155985428081  5.6752821373391997
  3.3772759006858739  3.6551684451870812  2.6461067686331958
 16.4818002139928979  3.6551684496039325  2.6461067745412286
  3.3772759237863044 13.3063063809767002  2.6461067760881578
 16.4818002242771477 13.3063063818119662  2.6461067787203860
  3.3772759067157394  3.6551684456124209  6.4961342224996379
 16.4818002225716285  3.6551684493409651  6.4961342289887671
  3.3772759250530333 13.3063063807178494  6.4961342283741512
 16.4818002198919764 13.3063063809541351  6.4961342292275503
  3.1749978904528398  5.9959649438926785  0.7210922612863039
 16.2795221867473821  5.9959649434006339  0.7210922596805055
  3.1749979197216240 15.6471028800313121  0.7210922517743518
 16.2795222003622158 15.6471028821946021  0.7210922548729471
  3.1749978988614682  5.9959649430127691  4.5711197102388335
 16.2795221863719561  5.9959649426637593  4.5711197115465927
  3.1749979190836575 15.6471028791570568  4.5711197036714388
 16.2795221992143553 15.6471028816352185  4.5711197071377976
  9.7272589975674180  8.4807369000860309  3.1289467002886475
 22.8317833364671969  8.4807368952489366  3.1289467153994193
  9.7272589790395632 18.1318748296940768  3.1289466951745095
 22.8317832949549064 18.1318748322280356  3.1289467028483382
  9.7272590020437395  8.4807368988608314  6.9789741533209426
 22.8317833316885697  8.4807368948139832  6.9789741655669904
  9.7272589783991243 18.1318748318375427  6.9789741468018685
 22.8317832879328932 18.1318748314765266  6.9789741521954323
  9.9295383431924531  1.1703963858136128  1.2039338757600802
 23.0340626302698048  1.1703963860551561  1.2039338765852388
  9.9295383205854861 10.8215343212045561  1.2039338831371549
 23.0340626089709488 10.8215343196660516  1.2039338842871194
  9.9295383413830720  1.1703963846240510  5.0539613280067304
 23.0340626349727771  1.1703963881292903  5.0539613268933854
  9.9295383104718873 10.8215343199604579  5.0539613381259780
 23.0340626069507124 10.8215343215223605  5.0539613365553633
  3.2032393418227936  1.2892824015395128  3.1012458737742241
 16.3077635891505182  1.2892823970239262  3.1012458510553520
  3.2032393026975066 10.9404203391585071  3.1012458523706385
 16.3077635779028896 10.9404203356049159  3.1012458445643318
  3.2032393482647006  1.2892824022326774  6.9512733287181456
 16.3077635921049549  1.2892823973675924  6.9512733041347818
  3.2032393093770044 10.9404203405704834  6.9512733074117312
 16.3077635812542745 10.9404203366837187  6.9512732978964147
  3.3490347856457472  8.3618506995797244  1.1762323498508434
 16.4535590922392139  8.3618506973684106  1.1762323408966469
  3.3490348002947292 18.0129886273939519  1.1762323409756297
 16.4535590990650249 18.0129886231344898  1.1762323362196994
  3.3490347884464668  8.3618507000112086  5.0262598000844525
 16.4535590866942947  8.3618506981565002  5.0262597960068804
  3.3490348209280705 18.0129886269412083  5.0262597814800580
 16.4535590990666059 18.0129886227249010  5.0262597878704103
  9.9012964618173136  6.1148508597125666  2.6738051322515979
 23.0058207461989213  6.1148508616088177  2.6738051286161304
  9.9012964632417244 15.7659888015437222  2.6738051339185174
 23.0058207580818639 15.7659887994713994  2.6738051356084664
  9.9012964618966510  6.1148508605374170  6.5238325840290692
 23.0058207384948652  6.1148508620078736  6.5238325763869112
  9.9012964739638285 15.7659888000701756  6.5238325910611934
 23.0058207600130658 15.7659887987123941  6.5238325881589434
  9.7555010874675219  3.5362821205946342  0.7487919345787207
 22.8600254039896278  3.5362821205280048  0.7487919211018258
  9.7555011088509822 13.1874200562810451  0.7487919230084094
 22.8600254067464164 13.1874200611643868  0.7487919189130191
  9.7555010795922286  3.5362821214134343  4.5988193904233565
 22.8600254107344192  3.5362821187010320  4.5988193694910890
  9.7555010916810261 13.1874200567387465  4.5988193837448215
 22.8600254173117037 13.1874200597398730  4.5988193650604545
  1.7988027797926103  8.8569196626003475  2.6631454197081297
 14.9033270631152455  8.8569196594670583  2.6631454165457451
  1.7988028072244528 18.5080575307658250  2.6631454435544635
 14.9033270758634586 18.5080575815958355  2.6631454241971131
  1.7988027781443154  8.8569196738757245  6.5131728685742472
 14.9033270604846422  8.8569196692869188  6.5131728649520042
  1.7988028070353095 18.5080575390750717  6.5131728942052627
 14.9033270786945558 18.5080575691726565  6.5131728798615596
  4.7534707696840783  0.7942135574180831  0.7381317689390330
 17.8579950590453578  0.7942135643774888  0.7381317717172009
  4.7534707662951741 10.4453515148572862  0.7381317746346511
 17.8579950521458066 10.4453515127856242  0.7381317780890055
  4.7534707843216637  0.7942135114624798  4.5881592075097419
 17.8579950600948685  0.7942135556281167  4.5881592218114537
  4.7534707665340985 10.4453515094164970  4.5881592258568249
 17.8579950383014072 10.4453515411678541  4.5881592399733755
 11.3057314051327573  4.0313512226239894  3.1119060893884622
 24.4102556838229461  4.0313511823947259  3.1119060772567226
 11.3057314119318981 13.6824891684132037  3.1119060949897159
 24.4102557029820026 13.6824891880557651  3.1119060975993946
 11.3057313961544512  4.0313511958651036  6.9619335320491400
 24.4102556847774785  4.0313511809283114  6.9619335294055720
 11.3057314161374105 13.6824891838452203  6.9619335513535905
 24.4102556844672165 13.6824891344931316  6.9619335305629697
  8.3510666112133940  5.6197822321239874  1.1868934224483356
 21.4555909301836785  5.6197822884034085  1.1868933985686314
  8.3510666257223036 15.2709201952708060  1.1868934102008681
 21.4555909482991503 15.2709202712922654  1.1868933826989572
  8.3510666095108093  5.6197822226254424  5.0369208759207664
 21.4555909292257070  5.6197822921517657  5.0369208507443277
  8.3510666242577809 15.2709201805036567  5.0369208645557215
 21.4555909503579123 15.2709202809297935  5.0369208324840633
  0.3084521449801752  0.2968258729185551  1.7211857646483812
 13.4129764965123268  0.2968258607519779  1.7211858057671727
  0.3084522303193762  9.9479637737161895  1.7211858192467393
 13.4129765284578824  9.9479637545965076  1.7211858305116885
  0.3084521489765068  0.2968258777149354  5.5712132164690331
 13.4129764892714860  0.2968258589011519  5.5712132541802397
  0.3084522369977431  9.9479637645982173  5.5712132734135800
 13.4129765308560156  9.9479637462306574  5.5712132823690386
  6.2438211858318660  9.3543077935295109  3.6461988026951628
 19.3483454852908601  9.3543077326847026  3.6461987931050306
  6.2438211122471223 19.0054457602146982  3.6461988459489230
 19.3483454500963958 19.0054457538606414  3.6461988157961649
  6.2438211895202942  9.3543078006226299  7.4962262522013798
 19.3483454614786154  9.3543077650540827  7.4962262620304712
  6.2438211512652773 19.0054457543500170  7.4962262724807776
 19.3483454527814303 19.0054457558231569  7.4962262665870467
 12.7960832601653927  5.1223949535380990  0.2038383481268929
 25.9006075720117650  5.1223949406952975  0.2038383612833291
 12.7960832240193074 14.7735328321019868  0.2038383254310841
 25.9006075620714853 14.7735328924104916  0.2038383551944764
 12.7960832410265422  5.1223949410340088  4.0538657878794249
 25.9006075716509265  5.1223949507188848  4.0538658128509191
 12.7960832392805308 14.7735328257695002  4.0538657871723318
 25.9006075280908270 14.7735328530984038  4.0538657872134687
  6.8607139433504312  4.5287385758633976  2.1288514269362580
 19.9652381963455241  4.5287385199347776  2.1288514550214885
  6.8607138995335317 14.1798764863940789  2.1288514576840600
 19.9652381304332494 14.1798764153031964  2.1288514961065497
  6.8607139507457173  4.5287385647385499  5.9788788737493155
 19.9652381918128050  4.5287385349691238  5.9788789093657986
  6.8607139124947967 14.1798764683644958  5.9788789017897548
 19.9652381205684861 14.1798764277353513  5.9788789545840642
  0.5182435564757331  2.6544001684126504  1.5167414429606632
 13.6227679068434480  2.6544001933125800  1.5167414716741183
  0.5182435694170541 12.3055381543465749  1.5167414433237767
 13.6227678766750557 12.3055381500066705  1.5167414522980367
  0.5182435564562967  2.6544001698821695  5.3667688945782857
 13.6227678846559819  2.6544001790139582  5.3667689134747460
  0.5182435688683947 12.3055381688419274  5.3667688922028995
 13.6227678811625683 12.3055381616289630  5.3667689047298728
  6.0340308890287959  6.9967330215886596  3.4417559453177451
 19.1385552497570330  6.9967330833784347  3.4417559173845018
  6.0340308873465620 16.6478709030237653  3.4417559387391576
 19.1385552570803483 16.6478709581581903  3.4417559054452127
  6.0340308992048630  6.9967330265036507  7.2917833925507560
 19.1385552263723149  6.9967330488950550  7.2917833767579241
  6.0340309080228307 16.6478709404620417  7.2917833845946278
 19.1385552533100309 16.6478709623063139  7.2917833596792656
 12.5862929827767616  7.4799697238117604  0.4082797765302357
 25.6908172393972265  7.4799697421349602  0.4082797599378680
 12.5862929625813962 17.1311077083921113  0.4082797721512603
 25.6908173164771760 17.1311076319783666  0.4082797957103179
 12.5862929507952792  7.4799697499571041  4.2583072151911114
 25.6908172429422521  7.4799697367744553  4.2583072129465513
 12.5862929787546456 17.1311076989667477  4.2583072310753005
 25.6908172552187040 17.1311076947177732  4.2583072237588500
  7.0705043381320722  2.1711639028315433  2.3332938240541683
 20.1750286128452814  2.1711639372632847  2.3332938291034973
  7.0705043577083710 11.8223018412302245  2.3332938132857577
 20.1750286050395609 11.8223019346490599  2.3332938233401683
  7.0705043493452173  2.1711638976887873  6.1833212706596052
 20.1750286008428290  2.1711639360104416  6.1833212873584786
  7.0705043645634191 11.8223018344584077  6.1833212621676639
 20.1750285954968120 11.8223019344358473  6.1833212800980641
  2.4072065890538883  3.7116409610456924  2.3442686671817463
 15.5117308553834015  3.7116408891468988  2.3442686697549924
  2.4072066063792690 13.3627788941434975  2.3442686797918100
 15.5117308689561160 13.3627788712917681  2.3442686716401506
  2.4072065912908593  3.7116409613554637  6.1942961207269267
 15.5117308523483377  3.7116408953474127  6.1942961207401757
  2.4072066086224675 13.3627788945361239  6.1942961328229815
 15.5117308696302327 13.3627788789832191  6.1942961218346753
  4.1450676056330664  5.9394922926350153  0.4192552763016688
 17.2495918901664140  5.9394923086279183  0.4192552807051162
  4.1450675906129204 15.5906302361709237  0.4192552802945223
 17.2495919038091365 15.5906302296659938  0.4192552715356331
  4.1450675962423666  5.9394923002126792  4.2692827316829822
 17.2495918865218307  5.9394923075857857  4.2692827346773150
  4.1450675817466101 15.5906302559770964  4.2692827384679006
 17.2495918968629418 15.5906302318824039  4.2692827270010003
 10.6973294506892227  8.5372100731106233  3.4307810584548100
 23.8018537481111103  8.5372101118566732  3.4307810746651559
 10.6973294976052102 18.1883480290800428  3.4307810789861866
 23.8018537629626366 18.1883480109502358  3.4307810695307297
 10.6973294483882295  8.5372100904572488  7.2808085121763950
 23.8018537538688122  8.5372101150952346  7.2808085288738438
 10.6973294924261086 18.1883480062853202  7.2808085247558889
 23.8018537675777964 18.1883480314215582  7.2808085252197863
  8.9594676510765439  1.1139231985678910  1.5057676306195669
 22.0639919339449513  1.1139231834768160  1.5057676388728778
  8.9594676470911132 10.7650611323641598  1.5057676373415230
 22.0639919329270775 10.7650611320459237  1.5057676406483269
  8.9594676553088366  1.1139232092141409  5.3557950798480638
 22.0639919218032361  1.1139231666702714  5.3557950973692527
  8.9594676604764611 10.7650611476531282  5.3557950825280463
 22.0639919264259916 10.7650611159237339  5.3557950975705291
 11.7994163874377502  1.5381489419407204  0.6530285078357786
 24.9039407077936197  1.5381489469890641  0.6530285228842644
 11.7994163982782059 11.1892868809221113  0.6530285125095222
 24.9039407188887552 11.1892868905160103  0.6530285266506012
 11.7994163943060641  1.5381489412212195  4.5030559634033072
 24.9039407165130164  1.5381489494590079  4.5030559788649844
 11.7994163905815110 11.1892868830470711  4.5030559597833744
 24.9039407199887570 11.1892868949010449  4.5030559780378301
  7.8573821707888793  8.1129845327725771  2.5780432131631303
 20.9619063896172086  8.1129845295834730  2.5780432513094889
  7.8573821785508509 17.7641224511305005  2.5780432062482612
 20.9619064302147997 17.7641224522892323  2.5780432272306104
  7.8573821702953390  8.1129845334533002  6.4280706648726298
 20.9619064138479665  8.1129845273202879  6.4280706896832864
  7.8573821690834142 17.7641224574533787  6.4280706638025578
 20.9619064340527999 17.7641224548140677  6.4280706769892273
  1.3051179135753785  6.3637180884993860  1.2719970317032896
 14.4096421720006163  6.3637180912972342  1.2719970138858794
  1.3051178959651455 16.0148560295294118  1.2719970236160345
 14.4096422238696942 16.0148560335482628  1.2719970443444346
  1.3051179135425797  6.3637180886362676  5.1220244833207635
 14.4096421861124941  6.3637180927748203  5.1220244736599714
  1.3051179366961490 16.0148560347815163  5.1220244979006013
 14.4096422201684025 16.0148560329993295  5.1220244940725559
  5.2471546909509375  3.2874154780473810  3.1970102102574121
 18.3516790504530398  3.2874154775135547  3.1970101724395081
  5.2471546811816321 12.9385534140204008  3.1970102139516641
 18.3516790321392875 12.9385534250653809  3.1970101797200621
  5.2471546892261740  3.2874154773954456  7.0470376625930244
 18.3516790470573845  3.2874154771147359  7.0470376261821865
  5.2471546821129076 12.9385534114958300  7.0470376652442033
 18.3516790310003479 12.9385534250583092  7.0470376323659325
