C H O
        1.0000000000
  16.310539884850218   0.000000000000000   0.030454346056624
   0.000000000000000  12.148542326558173   0.000000000000000
  -7.223774348686689   0.000000000000000  14.419267765698926
   72   72  144
 Direct
   0.047142613562295   0.001860160175977   0.332868614210934
   0.380475946895628   0.001860160175977   0.332868614210934
   0.713809280228962   0.001860160175977   0.332868614210934
   0.047142613562295   0.501860160175977   0.332868614210934
   0.380475946895628   0.501860160175977   0.332868614210934
   0.713809280228962   0.501860160175977   0.332868614210934
   0.047142613562295   0.001860160175977   0.666201947544268
   0.380475946895628   0.001860160175977   0.666201947544268
   0.713809280228962   0.001860160175977   0.666201947544268
   0.047142613562295   0.501860160175977   0.666201947544268
   0.380475946895628   0.501860160175977   0.666201947544268
   0.713809280228962   0.501860160175977   0.666201947544268
   0.047142613562295   0.001860160175977   0.999535280877601
   0.380475946895628   0.001860160175977   0.999535280877601
   0.713809280228962   0.001860160175977   0.999535280877601
   0.047142613562295   0.501860160175977   0.999535280877601
   0.380475946895628   0.501860160175977   0.999535280877601
   0.713809280228962   0.501860160175977   0.999535280877601
   0.286190719771038   0.498139839824023   0.000464719122399
   0.619524053104372   0.498139839824023   0.000464719122399
   0.952857386437705   0.498139839824023   0.000464719122399
   0.286190719771038   0.998139839824023   0.000464719122399
   0.619524053104372   0.998139839824023   0.000464719122399
   0.952857386437705   0.998139839824023   0.000464719122399
   0.286190719771038   0.498139839824023   0.333798052455732
   0.619524053104372   0.498139839824023   0.333798052455732
   0.952857386437705   0.498139839824023   0.333798052455732
   0.286190719771038   0.998139839824023   0.333798052455732
   0.619524053104372   0.998139839824023   0.333798052455732
   0.952857386437705   0.998139839824023   0.333798052455732
   0.286190719771038   0.498139839824023   0.667131385789066
   0.619524053104372   0.498139839824023   0.667131385789066
   0.952857386437705   0.498139839824023   0.667131385789066
   0.286190719771038   0.998139839824023   0.667131385789066
   0.619524053104372   0.998139839824023   0.667131385789066
   0.952857386437705   0.998139839824023   0.667131385789066
   0.286190718730714   0.251860162478484   0.167131426136337
   0.619524052064047   0.251860162478484   0.167131426136337
   0.952857385397380   0.251860162478484   0.167131426136337
   0.286190718730714   0.751860162478484   0.167131426136337
   0.619524052064047   0.751860162478484   0.167131426136337
   0.952857385397380   0.751860162478484   0.167131426136337
   0.286190718730714   0.251860162478484   0.500464759469671
   0.619524052064047   0.251860162478484   0.500464759469671
   0.952857385397380   0.251860162478484   0.500464759469671
   0.286190718730714   0.751860162478484   0.500464759469671
   0.619524052064047   0.751860162478484   0.500464759469671
   0.952857385397380   0.751860162478484   0.500464759469671
   0.286190718730714   0.251860162478484   0.833798092803004
   0.619524052064047   0.251860162478484   0.833798092803004
   0.952857385397380   0.251860162478484   0.833798092803004
   0.286190718730714   0.751860162478484   0.833798092803004
   0.619524052064047   0.751860162478484   0.833798092803004
   0.952857385397380   0.751860162478484   0.833798092803004
   0.047142614547797   0.248139837429537   0.166201907229466
   0.380475947881130   0.248139837429537   0.166201907229466
   0.713809281214463   0.248139837429537   0.166201907229466
   0.047142614547797   0.748139837429537   0.166201907229466
   0.380475947881130   0.748139837429537   0.166201907229466
   0.713809281214463   0.748139837429537   0.166201907229466
   0.047142614547797   0.248139837429537   0.499535240562799
   0.380475947881130   0.248139837429537   0.499535240562799
   0.713809281214463   0.248139837429537   0.499535240562799
   0.047142614547797   0.748139837429537   0.499535240562799
   0.380475947881130   0.748139837429537   0.499535240562799
   0.713809281214463   0.748139837429537   0.499535240562799
   0.047142614547797   0.248139837429537   0.832868573896132
   0.380475947881130   0.248139837429537   0.832868573896132
   0.713809281214463   0.248139837429537   0.832868573896132
   0.047142614547797   0.748139837429537   0.832868573896132
   0.380475947881130   0.748139837429537   0.832868573896132
   0.713809281214463   0.748139837429537   0.832868573896132
   0.170556662727706   0.450768658655217   0.067537484593768
   0.503889996061040   0.450768658655217   0.067537484593768
   0.837223329394373   0.450768658655217   0.067537484593768
   0.170556662727706   0.950768658655217   0.067537484593768
   0.503889996061040   0.950768658655217   0.067537484593768
   0.837223329394373   0.950768658655217   0.067537484593768
   0.170556662727706   0.450768658655217   0.400870817927101
   0.503889996061040   0.450768658655217   0.400870817927101
   0.837223329394373   0.450768658655217   0.400870817927101
   0.170556662727706   0.950768658655217   0.400870817927101
   0.503889996061040   0.950768658655217   0.400870817927101
   0.837223329394373   0.950768658655217   0.400870817927101
   0.170556662727706   0.450768658655217   0.734204151260435
   0.503889996061040   0.450768658655217   0.734204151260435
   0.837223329394373   0.450768658655217   0.734204151260435
   0.170556662727706   0.950768658655217   0.734204151260435
   0.503889996061040   0.950768658655217   0.734204151260435
   0.837223329394373   0.950768658655217   0.734204151260435
   0.162776670518495   0.049231341278233   0.265795848683264
   0.496110003851829   0.049231341278233   0.265795848683264
   0.829443337185162   0.049231341278233   0.265795848683264
   0.162776670518495   0.549231341278233   0.265795848683264
   0.496110003851829   0.549231341278233   0.265795848683264
   0.829443337185162   0.549231341278233   0.265795848683264
   0.162776670518495   0.049231341278233   0.599129182016597
   0.496110003851829   0.049231341278233   0.599129182016597
   0.829443337185162   0.049231341278233   0.599129182016597
   0.162776670518495   0.549231341278233   0.599129182016597
   0.496110003851829   0.549231341278233   0.599129182016597
   0.829443337185162   0.549231341278233   0.599129182016597
   0.162776670518495   0.049231341278233   0.932462515349931
   0.496110003851829   0.049231341278233   0.932462515349931
   0.829443337185162   0.049231341278233   0.932462515349931
   0.162776670518495   0.549231341278233   0.932462515349931
   0.496110003851829   0.549231341278233   0.932462515349931
   0.829443337185162   0.549231341278233   0.932462515349931
   0.162776662414500   0.200768643039112   0.099129212335428
   0.496109995747833   0.200768643039112   0.099129212335428
   0.829443329081166   0.200768643039112   0.099129212335428
   0.162776662414500   0.700768643039112   0.099129212335428
   0.496109995747833   0.700768643039112   0.099129212335428
   0.829443329081166   0.700768643039112   0.099129212335428
   0.162776662414500   0.200768643039112   0.432462545668761
   0.496109995747833   0.200768643039112   0.432462545668761
   0.829443329081166   0.200768643039112   0.432462545668761
   0.162776662414500   0.700768643039112   0.432462545668761
   0.496109995747833   0.700768643039112   0.432462545668761
   0.829443329081166   0.700768643039112   0.432462545668761
   0.162776662414500   0.200768643039112   0.765795879002094
   0.496109995747833   0.200768643039112   0.765795879002094
   0.829443329081166   0.200768643039112   0.765795879002094
   0.162776662414500   0.700768643039112   0.765795879002094
   0.496109995747833   0.700768643039112   0.765795879002094
   0.829443329081166   0.700768643039112   0.765795879002094
   0.170556670874434   0.299231356871665   0.234204120918784
   0.503890004207767   0.299231356871665   0.234204120918784
   0.837223337541101   0.299231356871665   0.234204120918784
   0.170556670874434   0.799231356871665   0.234204120918784
   0.503890004207767   0.799231356871665   0.234204120918784
   0.837223337541101   0.799231356871665   0.234204120918784
   0.170556670874434   0.299231356871665   0.567537454252118
   0.503890004207767   0.299231356871665   0.567537454252118
   0.837223337541101   0.299231356871665   0.567537454252118
   0.170556670874434   0.799231356871665   0.567537454252118
   0.503890004207767   0.799231356871665   0.567537454252118
   0.837223337541101   0.799231356871665   0.567537454252118
   0.170556670874434   0.299231356871665   0.900870787585451
   0.503890004207767   0.299231356871665   0.900870787585451
   0.837223337541101   0.299231356871665   0.900870787585451
   0.170556670874434   0.799231356871665   0.900870787585451
   0.503890004207767   0.799231356871665   0.900870787585451
   0.837223337541101   0.799231356871665   0.900870787585451
   0.059278115060610   0.051558535521537   0.273013869526091
   0.392611448393943   0.051558535521537   0.273013869526091
   0.725944781727276   0.051558535521537   0.273013869526091
   0.059278115060610   0.551558535521537   0.273013869526091
   0.392611448393943   0.551558535521537   0.273013869526091
   0.725944781727276   0.551558535521537   0.273013869526091
   0.059278115060610   0.051558535521537   0.606347202859425
   0.392611448393943   0.051558535521537   0.606347202859425
   0.725944781727276   0.051558535521537   0.606347202859425
   0.059278115060610   0.551558535521537   0.606347202859425
   0.392611448393943   0.551558535521537   0.606347202859425
   0.725944781727276   0.551558535521537   0.606347202859425
   0.059278115060610   0.051558535521537   0.939680536192758
   0.392611448393943   0.051558535521537   0.939680536192758
   0.725944781727276   0.051558535521537   0.939680536192758
   0.059278115060610   0.551558535521537   0.939680536192758
   0.392611448393943   0.551558535521537   0.939680536192758
   0.725944781727276   0.551558535521537   0.939680536192758
   0.110452827498683   0.447219977642951   0.070475470374676
   0.443786160832016   0.447219977642951   0.070475470374676
   0.777119494165349   0.447219977642951   0.070475470374676
   0.110452827498683   0.947219977642951   0.070475470374676
   0.443786160832016   0.947219977642951   0.070475470374676
   0.777119494165349   0.947219977642951   0.070475470374676
   0.110452827498683   0.447219977642951   0.403808803708010
   0.443786160832016   0.447219977642951   0.403808803708010
   0.777119494165349   0.447219977642951   0.403808803708010
   0.110452827498683   0.947219977642951   0.403808803708010
   0.443786160832016   0.947219977642951   0.403808803708010
   0.777119494165349   0.947219977642951   0.403808803708010
   0.110452827498683   0.447219977642951   0.737142137041343
   0.443786160832016   0.447219977642951   0.737142137041343
   0.777119494165349   0.447219977642951   0.737142137041343
   0.110452827498683   0.947219977642951   0.737142137041343
   0.443786160832016   0.947219977642951   0.737142137041343
   0.777119494165349   0.947219977642951   0.737142137041343
   0.274055218334415   0.448441464338799   0.060319463807971
   0.607388551667749   0.448441464338799   0.060319463807971
   0.940721885001082   0.448441464338799   0.060319463807971
   0.274055218334415   0.948441464338799   0.060319463807971
   0.607388551667749   0.948441464338799   0.060319463807971
   0.940721885001082   0.948441464338799   0.060319463807971
   0.274055218334415   0.448441464338799   0.393652797141305
   0.607388551667749   0.448441464338799   0.393652797141305
   0.940721885001082   0.448441464338799   0.393652797141305
   0.274055218334415   0.948441464338799   0.393652797141305
   0.607388551667749   0.948441464338799   0.393652797141305
   0.940721885001082   0.948441464338799   0.393652797141305
   0.274055218334415   0.448441464338799   0.726986130474638
   0.607388551667749   0.448441464338799   0.726986130474638
   0.940721885001082   0.448441464338799   0.726986130474638
   0.274055218334415   0.948441464338799   0.726986130474638
   0.607388551667749   0.948441464338799   0.726986130474638
   0.940721885001082   0.948441464338799   0.726986130474638
   0.222880505769759   0.052780022378003   0.262857863008255
   0.556213839103092   0.052780022378003   0.262857863008255
   0.889547172436426   0.052780022378003   0.262857863008255
   0.222880505769759   0.552780022378003   0.262857863008255
   0.556213839103092   0.552780022378003   0.262857863008255
   0.889547172436426   0.552780022378003   0.262857863008255
   0.222880505769759   0.052780022378003   0.596191196341589
   0.556213839103092   0.052780022378003   0.596191196341589
   0.889547172436426   0.052780022378003   0.596191196341589
   0.222880505769759   0.552780022378003   0.596191196341589
   0.556213839103092   0.552780022378003   0.596191196341589
   0.889547172436426   0.552780022378003   0.596191196341589
   0.222880505769759   0.052780022378003   0.929524529674922
   0.556213839103092   0.052780022378003   0.929524529674922
   0.889547172436426   0.052780022378003   0.929524529674922
   0.222880505769759   0.552780022378003   0.929524529674922
   0.556213839103092   0.552780022378003   0.929524529674922
   0.889547172436426   0.552780022378003   0.929524529674922
   0.274055240870751   0.301558532986072   0.226986155412564
   0.607388574204085   0.301558532986072   0.226986155412564
   0.940721907537418   0.301558532986072   0.226986155412564
   0.274055240870751   0.801558532986072   0.226986155412564
   0.607388574204085   0.801558532986072   0.226986155412564
   0.940721907537418   0.801558532986072   0.226986155412564
   0.274055240870751   0.301558532986072   0.560319488745897
   0.607388574204085   0.301558532986072   0.560319488745897
   0.940721907537418   0.301558532986072   0.560319488745897
   0.274055240870751   0.801558532986072   0.560319488745897
   0.607388574204085   0.801558532986072   0.560319488745897
   0.940721907537418   0.801558532986072   0.560319488745897
   0.274055240870751   0.301558532986072   0.893652822079230
   0.607388574204085   0.301558532986072   0.893652822079230
   0.940721907537418   0.301558532986072   0.893652822079230
   0.274055240870751   0.801558532986072   0.893652822079230
   0.607388574204085   0.801558532986072   0.893652822079230
   0.940721907537418   0.801558532986072   0.893652822079230
   0.059278092515347   0.198441466734162   0.106347178025141
   0.392611425848680   0.198441466734162   0.106347178025141
   0.725944759182013   0.198441466734162   0.106347178025141
   0.059278092515347   0.698441466734162   0.106347178025141
   0.392611425848680   0.698441466734162   0.106347178025141
   0.725944759182013   0.698441466734162   0.106347178025141
   0.059278092515347   0.198441466734162   0.439680511358475
   0.392611425848680   0.198441466734162   0.439680511358475
   0.725944759182013   0.198441466734162   0.439680511358475
   0.059278092515347   0.698441466734162   0.439680511358475
   0.392611425848680   0.698441466734162   0.439680511358475
   0.725944759182013   0.698441466734162   0.439680511358475
   0.059278092515347   0.198441466734162   0.773013844691808
   0.392611425848680   0.198441466734162   0.773013844691808
   0.725944759182013   0.198441466734162   0.773013844691808
   0.059278092515347   0.698441466734162   0.773013844691808
   0.392611425848680   0.698441466734162   0.773013844691808
   0.725944759182013   0.698441466734162   0.773013844691808
   0.222880522234668   0.197219957369739   0.096191247619639
   0.556213855568002   0.197219957369739   0.096191247619639
   0.889547188901335   0.197219957369739   0.096191247619639
   0.222880522234668   0.697219957369739   0.096191247619639
   0.556213855568002   0.697219957369739   0.096191247619639
   0.889547188901335   0.697219957369739   0.096191247619639
   0.222880522234668   0.197219957369739   0.429524580952972
   0.556213855568002   0.197219957369739   0.429524580952972
   0.889547188901335   0.197219957369739   0.429524580952972
   0.222880522234668   0.697219957369739   0.429524580952972
   0.556213855568002   0.697219957369739   0.429524580952972
   0.889547188901335   0.697219957369739   0.429524580952972
   0.222880522234668   0.197219957369739   0.762857914286306
   0.556213855568002   0.197219957369739   0.762857914286306
   0.889547188901335   0.197219957369739   0.762857914286306
   0.222880522234668   0.697219957369739   0.762857914286306
   0.556213855568002   0.697219957369739   0.762857914286306
   0.889547188901335   0.697219957369739   0.762857914286306
   0.110452811074580   0.302780042753704   0.237142085638254
   0.443786144407913   0.302780042753704   0.237142085638254
   0.777119477741246   0.302780042753704   0.237142085638254
   0.110452811074580   0.802780042753704   0.237142085638254
   0.443786144407913   0.802780042753704   0.237142085638254
   0.777119477741246   0.802780042753704   0.237142085638254
   0.110452811074580   0.302780042753704   0.570475418971587
   0.443786144407913   0.302780042753704   0.570475418971587
   0.777119477741246   0.302780042753704   0.570475418971587
   0.110452811074580   0.802780042753704   0.570475418971587
   0.443786144407913   0.802780042753704   0.570475418971587
   0.777119477741246   0.802780042753704   0.570475418971587
   0.110452811074580   0.302780042753704   0.903808752304920
   0.443786144407913   0.302780042753704   0.903808752304920
   0.777119477741246   0.302780042753704   0.903808752304920
   0.110452811074580   0.802780042753704   0.903808752304920
   0.443786144407913   0.802780042753704   0.903808752304920
   0.777119477741246   0.802780042753704   0.903808752304920
