 C  O  N  H 
 1.0000000000000000
    25.0000000000000000    0.0000000000000000    0.0000000000000000
     0.0000000000000000   25.0000000000000000    0.0000000000000000
     0.0000000000000000    0.0000000000000000   25.0000000000000000
 C   O   N   H  
   1   1   2   4
Cartesian
 12.6376899999999992 12.9989500000000007 12.5009399999999999
 13.2470700000000008 14.0597200000000004 12.5002800000000001
 11.2853999999999992 12.9047100000000015 12.1986299999999996
 13.2381899999999995 11.7841300000000011 12.8040199999999995
 10.7499299999999991 12.1509300000000007 12.6142199999999995
 10.8140700000000010 13.8012800000000020 12.1877999999999993
 12.8531699999999987 10.9402800000000013 12.3955099999999998
 14.2500700000000009 11.8274100000000004 12.8122000000000007
