super cell
        1.0000000000
  18.680583792033239   0.000024672098116  -0.000012660936005
  -9.340270529344195  16.177878972277856   0.000012660941237
  -0.000010964288298   0.000006330237459  16.265434704820034
  144  288  144
 Direct
   0.068642542368112   0.076634719653217   0.491743073381213
   0.568642542368112   0.076634719653217   0.491743073381213
   0.068642542368112   0.576634719653217   0.491743073381213
   0.568642542368112   0.576634719653217   0.491743073381213
   0.068642542368112   0.076634719653217   0.991743073381213
   0.568642542368112   0.076634719653217   0.991743073381213
   0.068642542368112   0.576634719653217   0.991743073381213
   0.568642542368112   0.576634719653217   0.991743073381213
   0.423364495674983   0.491943253432280   0.491742842124505
   0.923364495674983   0.491943253432280   0.491742842124505
   0.423364495674983   0.991943253432280   0.491742842124505
   0.923364495674983   0.991943253432280   0.491742842124505
   0.423364495674983   0.491943253432280   0.991742842124505
   0.923364495674983   0.491943253432280   0.991742842124505
   0.423364495674983   0.991943253432280   0.991742842124505
   0.923364495674983   0.991943253432280   0.991742842124505
   0.008056036787631   0.431356649996121   0.491741260787344
   0.508056036787631   0.431356649996121   0.491741260787344
   0.008056036787631   0.931356649996121   0.491741260787344
   0.508056036787631   0.931356649996121   0.491741260787344
   0.008056036787631   0.431356649996121   0.991741260787344
   0.508056036787631   0.431356649996121   0.991741260787344
   0.008056036787631   0.931356649996121   0.991741260787344
   0.508056036787631   0.931356649996121   0.991741260787344
   0.423365267513123   0.431357463268970   0.241743074862084
   0.923365267513123   0.431357463268970   0.241743074862084
   0.423365267513123   0.931357463268970   0.241743074862084
   0.923365267513123   0.931357463268970   0.241743074862084
   0.423365267513123   0.431357463268970   0.741743074862084
   0.923365267513123   0.431357463268970   0.741743074862084
   0.423365267513123   0.931357463268970   0.741743074862084
   0.923365267513123   0.931357463268970   0.741743074862084
   0.008056718805681   0.076635477602461   0.241742846660599
   0.508056718805681   0.076635477602461   0.241742846660599
   0.008056718805681   0.576635477602460   0.241742846660599
   0.508056718805681   0.576635477602460   0.241742846660599
   0.008056718805681   0.076635477602461   0.741742846660599
   0.508056718805681   0.076635477602461   0.741742846660599
   0.008056718805681   0.576635477602460   0.741742846660599
   0.508056718805681   0.576635477602460   0.741742846660599
   0.068643348738983   0.491943955997481   0.241741264647493
   0.568643348738983   0.491943955997481   0.241741264647493
   0.068643348738983   0.991943955997481   0.241741264647493
   0.568643348738983   0.991943955997481   0.241741264647493
   0.068643348738983   0.491943955997481   0.741741264647493
   0.568643348738983   0.491943955997481   0.741741264647493
   0.068643348738983   0.991943955997481   0.741741264647493
   0.568643348738983   0.991943955997481   0.741741264647493
   0.401992770517721   0.243290860818252   0.158435810601323
   0.901992770517721   0.243290860818252   0.158435810601323
   0.401992770517721   0.743290860818252   0.158435810601323
   0.901992770517721   0.743290860818252   0.158435810601323
   0.401992770517721   0.243290860818252   0.658435810601323
   0.901992770517721   0.243290860818252   0.658435810601323
   0.401992770517721   0.743290860818252   0.658435810601323
   0.901992770517721   0.743290860818252   0.658435810601323
   0.256709570175386   0.158637799356235   0.158435039986085
   0.756709570175386   0.158637799356235   0.158435039986085
   0.256709570175386   0.658637799356235   0.158435039986085
   0.756709570175386   0.658637799356235   0.158435039986085
   0.256709570175386   0.158637799356235   0.658435039986085
   0.756709570175386   0.158637799356235   0.658435039986085
   0.256709570175386   0.658637799356235   0.658435039986085
   0.756709570175386   0.658637799356235   0.658435039986085
   0.341362886625051   0.098007600732529   0.158436071178130
   0.841362886625051   0.098007600732529   0.158436071178130
   0.341362886625051   0.598007600732529   0.158436071178130
   0.841362886625051   0.598007600732529   0.158436071178130
   0.341362886625051   0.098007600732529   0.658436071178130
   0.841362886625051   0.098007600732529   0.658436071178130
   0.341362886625051   0.598007600732529   0.658436071178130
   0.841362886625051   0.598007600732529   0.658436071178130
   0.256709157025434   0.098007224135923   0.408435814221390
   0.756709157025434   0.098007224135923   0.408435814221390
   0.256709157025434   0.598007224135923   0.408435814221390
   0.756709157025434   0.598007224135923   0.408435814221390
   0.256709157025434   0.098007224135923   0.908435814221390
   0.756709157025434   0.098007224135923   0.908435814221390
   0.256709157025434   0.598007224135923   0.908435814221390
   0.756709157025434   0.598007224135923   0.908435814221390
   0.341362241446459   0.243290424825213   0.408435039737958
   0.841362241446459   0.243290424825213   0.408435039737958
   0.341362241446459   0.743290424825213   0.408435039737958
   0.841362241446459   0.743290424825213   0.408435039737958
   0.341362241446459   0.243290424825213   0.908435039737958
   0.841362241446459   0.243290424825213   0.908435039737958
   0.341362241446459   0.743290424825213   0.908435039737958
   0.841362241446459   0.743290424825213   0.908435039737958
   0.401992417715088   0.158637128348436   0.408436077253554
   0.901992417715088   0.158637128348436   0.408436077253554
   0.401992417715088   0.658637128348436   0.408436077253554
   0.901992417715088   0.658637128348436   0.408436077253554
   0.401992417715088   0.158637128348436   0.908436077253554
   0.901992417715088   0.158637128348436   0.908436077253554
   0.401992417715088   0.658637128348436   0.908436077253554
   0.901992417715088   0.658637128348436   0.908436077253554
   0.235316657614696   0.409962227453203   0.325072174714066
   0.735316657614696   0.409962227453203   0.325072174714066
   0.235316657614696   0.909962227453203   0.325072174714066
   0.735316657614696   0.909962227453203   0.325072174714066
   0.235316657614696   0.409962227453203   0.825072174714066
   0.735316657614696   0.409962227453203   0.825072174714066
   0.235316657614696   0.909962227453203   0.825072174714066
   0.735316657614696   0.909962227453203   0.825072174714066
   0.090036250867803   0.325291476543171   0.325073631924344
   0.590036250867803   0.325291476543171   0.325073631924344
   0.090036250867803   0.825291476543171   0.325073631924344
   0.590036250867803   0.825291476543171   0.325073631924344
   0.090036250867803   0.325291476543171   0.825073631924344
   0.590036250867803   0.325291476543171   0.825073631924344
   0.090036250867803   0.825291476543171   0.825073631924344
   0.590036250867803   0.825291476543171   0.825073631924344
   0.174707315950633   0.264681860303842   0.325071235057021
   0.674707315950633   0.264681860303842   0.325071235057021
   0.174707315950633   0.764681860303843   0.325071235057021
   0.674707315950633   0.764681860303843   0.325071235057021
   0.174707315950633   0.264681860303842   0.825071235057021
   0.674707315950633   0.264681860303842   0.825071235057021
   0.174707315950633   0.764681860303843   0.825071235057021
   0.674707315950633   0.764681860303843   0.825071235057021
   0.090037768150118   0.264683345119141   0.075072181837002
   0.590037768150118   0.264683345119141   0.075072181837002
   0.090037768150118   0.764683345119141   0.075072181837002
   0.590037768150118   0.764683345119141   0.075072181837002
   0.090037768150118   0.264683345119141   0.575072181837002
   0.590037768150118   0.264683345119141   0.575072181837002
   0.090037768150118   0.764683345119141   0.575072181837002
   0.590037768150118   0.764683345119141   0.575072181837002
   0.174708505322093   0.409963734613342   0.075073621214251
   0.674708505322093   0.409963734613342   0.075073621214251
   0.174708505322093   0.909963734613342   0.075073621214251
   0.674708505322093   0.909963734613342   0.075073621214251
   0.174708505322093   0.409963734613342   0.575073621214251
   0.674708505322093   0.409963734613342   0.575073621214251
   0.174708505322093   0.909963734613342   0.575073621214251
   0.674708505322093   0.909963734613342   0.575073621214251
   0.235318155518879   0.325292676284198   0.075071237884753
   0.735318155518879   0.325292676284198   0.075071237884753
   0.235318155518879   0.825292676284198   0.075071237884753
   0.735318155518879   0.825292676284198   0.075071237884753
   0.235318155518879   0.325292676284198   0.575071237884753
   0.735318155518879   0.325292676284198   0.575071237884753
   0.235318155518879   0.825292676284198   0.575071237884753
   0.735318155518879   0.825292676284198   0.575071237884753
   0.069785608986782   0.077836385994893   0.424318844896259
   0.569785608986782   0.077836385994893   0.424318844896259
   0.069785608986782   0.577836385994893   0.424318844896259
   0.569785608986782   0.577836385994893   0.424318844896259
   0.069785608986782   0.077836385994893   0.924318844896259
   0.569785608986782   0.077836385994893   0.924318844896259
   0.069785608986782   0.577836385994893   0.924318844896259
   0.569785608986782   0.577836385994893   0.924318844896259
   0.422163515685189   0.491886080811407   0.424318668110368
   0.922163515685189   0.491886080811407   0.424318668110368
   0.422163515685189   0.991886080811407   0.424318668110368
   0.922163515685189   0.991886080811407   0.424318668110368
   0.422163515685189   0.491886080811407   0.924318668110368
   0.922163515685189   0.491886080811407   0.924318668110368
   0.422163515685189   0.991886080811407   0.924318668110368
   0.922163515685189   0.991886080811407   0.924318668110368
   0.008113463112925   0.430214150661882   0.424317070757685
   0.508113463112925   0.430214150661882   0.424317070757685
   0.008113463112925   0.930214150661882   0.424317070757685
   0.508113463112925   0.930214150661882   0.424317070757685
   0.008113463112925   0.430214150661882   0.924317070757685
   0.508113463112925   0.430214150661882   0.924317070757685
   0.008113463112925   0.930214150661882   0.924317070757685
   0.508113463112925   0.930214150661882   0.924317070757685
   0.422163609958082   0.430214399179954   0.174318848544807
   0.922163609958082   0.430214399179954   0.174318848544807
   0.422163609958082   0.930214399179954   0.174318848544807
   0.922163609958082   0.930214399179954   0.174318848544807
   0.422163609958082   0.430214399179954   0.674318848544807
   0.922163609958082   0.430214399179954   0.674318848544807
   0.422163609958082   0.930214399179954   0.674318848544807
   0.922163609958082   0.930214399179954   0.674318848544807
   0.008113908590898   0.077836478578640   0.174318670896236
   0.508113908590898   0.077836478578640   0.174318670896236
   0.008113908590898   0.577836478578640   0.174318670896236
   0.508113908590898   0.577836478578640   0.174318670896236
   0.008113908590898   0.077836478578640   0.674318670896236
   0.508113908590898   0.077836478578640   0.674318670896236
   0.008113908590898   0.577836478578640   0.674318670896236
   0.508113908590898   0.577836478578640   0.674318670896236
   0.069785848374013   0.491886537597485   0.174317068468500
   0.569785848374013   0.491886537597485   0.174317068468500
   0.069785848374013   0.991886537597485   0.174317068468500
   0.569785848374013   0.991886537597485   0.174317068468500
   0.069785848374013   0.491886537597485   0.674317068468500
   0.569785848374013   0.491886537597485   0.674317068468500
   0.069785848374013   0.991886537597485   0.674317068468500
   0.569785848374013   0.991886537597485   0.674317068468500
   0.403137837348564   0.244493019633611   0.091011659105346
   0.903137837348564   0.244493019633611   0.091011659105346
   0.403137837348564   0.744493019633611   0.091011659105346
   0.903137837348564   0.744493019633611   0.091011659105346
   0.403137837348564   0.244493019633611   0.591011659105346
   0.903137837348564   0.244493019633611   0.591011659105346
   0.403137837348564   0.744493019633611   0.591011659105346
   0.903137837348564   0.744493019633611   0.591011659105346
   0.255507311697130   0.158580030580318   0.091010936294849
   0.755507311697130   0.158580030580318   0.091010936294849
   0.255507311697130   0.658580030580318   0.091010936294849
   0.755507311697130   0.658580030580318   0.091010936294849
   0.255507311697130   0.158580030580318   0.591010936294849
   0.755507311697130   0.158580030580318   0.591010936294849
   0.255507311697130   0.658580030580318   0.591010936294849
   0.755507311697130   0.658580030580318   0.591010936294849
   0.341420713058242   0.096862608043897   0.091012006948966
   0.841420713058242   0.096862608043897   0.091012006948966
   0.341420713058242   0.596862608043897   0.091012006948966
   0.841420713058242   0.596862608043897   0.091012006948966
   0.341420713058242   0.096862608043897   0.591012006948966
   0.841420713058242   0.096862608043897   0.591012006948966
   0.341420713058242   0.596862608043897   0.591012006948966
   0.841420713058242   0.596862608043897   0.591012006948966
   0.255506985308521   0.096862159038197   0.341011656980922
   0.755506985308521   0.096862159038197   0.341011656980922
   0.255506985308521   0.596862159038197   0.341011656980922
   0.755506985308521   0.596862159038197   0.341011656980922
   0.255506985308521   0.096862159038197   0.841011656980922
   0.755506985308521   0.096862159038197   0.841011656980922
   0.255506985308521   0.596862159038197   0.841011656980922
   0.755506985308521   0.596862159038197   0.841011656980922
   0.341419973855311   0.244492693070580   0.341010931571435
   0.841419973855311   0.244492693070580   0.341010931571435
   0.341419973855311   0.744492693070580   0.341010931571435
   0.841419973855311   0.744492693070580   0.341010931571435
   0.341419973855311   0.244492693070580   0.841010931571435
   0.841419973855311   0.244492693070580   0.841010931571435
   0.341419973855311   0.744492693070580   0.841010931571435
   0.841419973855311   0.744492693070580   0.841010931571435
   0.403137395358381   0.158579299138681   0.341012022732540
   0.903137395358381   0.158579299138681   0.341012022732540
   0.403137395358381   0.658579299138682   0.341012022732540
   0.903137395358381   0.658579299138682   0.341012022732540
   0.403137395358381   0.158579299138681   0.841012022732540
   0.903137395358381   0.158579299138681   0.841012022732540
   0.403137395358381   0.658579299138682   0.841012022732540
   0.903137395358381   0.658579299138682   0.841012022732540
   0.236458752977697   0.411162606539850   0.257647564915682
   0.736458752977697   0.411162606539850   0.257647564915682
   0.236458752977697   0.911162606539850   0.257647564915682
   0.736458752977697   0.911162606539850   0.257647564915682
   0.236458752977697   0.411162606539850   0.757647564915682
   0.736458752977697   0.411162606539850   0.757647564915682
   0.236458752977697   0.911162606539850   0.757647564915682
   0.736458752977697   0.911162606539850   0.757647564915682
   0.088835448211793   0.325234450068189   0.257649095755130
   0.588835448211793   0.325234450068189   0.257649095755130
   0.088835448211793   0.825234450068189   0.257649095755130
   0.588835448211793   0.825234450068189   0.257649095755130
   0.088835448211793   0.325234450068189   0.757649095755130
   0.588835448211793   0.325234450068189   0.757649095755130
   0.088835448211793   0.825234450068189   0.757649095755130
   0.588835448211793   0.825234450068189   0.757649095755130
   0.174763614988687   0.263539451047876   0.257646658349105
   0.674763614988687   0.263539451047876   0.257646658349105
   0.174763614988687   0.763539451047876   0.257646658349105
   0.674763614988687   0.763539451047876   0.257646658349105
   0.174763614988687   0.263539451047876   0.757646658349105
   0.674763614988687   0.263539451047876   0.757646658349105
   0.174763614988687   0.763539451047876   0.757646658349105
   0.674763614988687   0.763539451047876   0.757646658349105
   0.088837391934461   0.263541251577908   0.007647563496656
   0.588837391934461   0.263541251577908   0.007647563496656
   0.088837391934461   0.763541251577908   0.007647563496656
   0.588837391934461   0.763541251577908   0.007647563496656
   0.088837391934461   0.263541251577908   0.507647563496656
   0.588837391934461   0.263541251577908   0.507647563496656
   0.088837391934461   0.763541251577908   0.507647563496656
   0.588837391934461   0.763541251577908   0.507647563496656
   0.174765552660220   0.411164558575882   0.007649099443143
   0.674765552660220   0.411164558575882   0.007649099443143
   0.174765552660220   0.911164558575883   0.007649099443143
   0.674765552660220   0.911164558575883   0.007649099443143
   0.174765552660220   0.411164558575882   0.507649099443143
   0.674765552660220   0.411164558575882   0.507649099443143
   0.174765552660220   0.911164558575883   0.507649099443143
   0.674765552660220   0.911164558575883   0.507649099443143
   0.236460547012098   0.325236385431656   0.007646662282544
   0.736460547012098   0.325236385431656   0.007646662282544
   0.236460547012098   0.825236385431656   0.007646662282544
   0.736460547012098   0.825236385431656   0.007646662282544
   0.236460547012098   0.325236385431656   0.507646662282544
   0.736460547012098   0.325236385431656   0.507646662282544
   0.236460547012098   0.825236385431656   0.507646662282544
   0.736460547012098   0.825236385431656   0.507646662282544
   0.118811244624113   0.132521002524021   0.018337697181880
   0.618811244624113   0.132521002524021   0.018337697181880
   0.118811244624113   0.632521002524021   0.018337697181880
   0.618811244624113   0.632521002524021   0.018337697181880
   0.118811244624113   0.132521002524021   0.518337697181880
   0.618811244624113   0.132521002524021   0.518337697181880
   0.118811244624113   0.632521002524021   0.518337697181880
   0.618811244624113   0.632521002524021   0.518337697181880
   0.367477831064856   0.486225280604821   0.018337376515037
   0.867477831064856   0.486225280604821   0.018337376515037
   0.367477831064856   0.986225280604821   0.018337376515037
   0.867477831064856   0.986225280604821   0.018337376515037
   0.367477831064856   0.486225280604821   0.518337376515037
   0.867477831064856   0.486225280604821   0.518337376515037
   0.367477831064856   0.986225280604821   0.518337376515037
   0.867477831064856   0.986225280604821   0.518337376515037
   0.013774076496093   0.381187506056279   0.018334861121508
   0.513774076496093   0.381187506056279   0.018334861121508
   0.013774076496093   0.881187506056279   0.018334861121508
   0.513774076496093   0.881187506056279   0.018334861121508
   0.013774076496093   0.381187506056279   0.518334861121508
   0.513774076496093   0.381187506056279   0.518334861121508
   0.013774076496093   0.881187506056279   0.518334861121508
   0.513774076496093   0.881187506056279   0.518334861121508
   0.367478985970015   0.381188765556649   0.268337698067261
   0.867478985970014   0.381188765556649   0.268337698067261
   0.367478985970015   0.881188765556649   0.268337698067261
   0.867478985970014   0.881188765556649   0.268337698067261
   0.367478985970015   0.381188765556649   0.768337698067261
   0.867478985970014   0.381188765556649   0.768337698067261
   0.367478985970015   0.881188765556649   0.768337698067261
   0.867478985970014   0.881188765556649   0.768337698067261
   0.013774703554801   0.132522141914131   0.268337373604340
   0.513774703554801   0.132522141914131   0.268337373604340
   0.013774703554801   0.632522141914131   0.268337373604340
   0.513774703554801   0.632522141914131   0.268337373604340
   0.013774703554801   0.132522141914131   0.768337373604340
   0.513774703554801   0.132522141914131   0.768337373604340
   0.013774703554801   0.632522141914131   0.768337373604340
   0.513774703554801   0.632522141914131   0.768337373604340
   0.118812512767290   0.486225928444290   0.268334862087697
   0.618812512767290   0.486225928444290   0.268334862087697
   0.118812512767290   0.986225928444290   0.268334862087697
   0.618812512767290   0.986225928444290   0.268334862087697
   0.118812512767290   0.486225928444290   0.768334862087697
   0.618812512767290   0.486225928444290   0.768334862087697
   0.118812512767290   0.986225928444290   0.768334862087697
   0.618812512767290   0.986225928444290   0.768334862087697
   0.452171820131611   0.299168978175268   0.185031348181261
   0.952171820131611   0.299168978175268   0.185031348181261
   0.452171820131611   0.799168978175268   0.185031348181261
   0.952171820131611   0.799168978175268   0.185031348181261
   0.452171820131611   0.299168978175268   0.685031348181261
   0.952171820131611   0.299168978175268   0.685031348181261
   0.452171820131611   0.799168978175268   0.685031348181261
   0.952171820131611   0.799168978175268   0.685031348181261
   0.200831257140509   0.152939005631828   0.185030443035568
   0.700831257140509   0.152939005631828   0.185030443035568
   0.200831257140509   0.652939005631828   0.185030443035568
   0.700831257140509   0.652939005631828   0.185030443035568
   0.200831257140509   0.152939005631828   0.685030443035568
   0.700831257140509   0.152939005631828   0.685030443035568
   0.200831257140509   0.652939005631828   0.685030443035568
   0.700831257140509   0.652939005631828   0.685030443035568
   0.347061841980957   0.047828324908408   0.185032155620397
   0.847061841980957   0.047828324908408   0.185032155620397
   0.347061841980957   0.547828324908408   0.185032155620397
   0.847061841980957   0.547828324908408   0.185032155620397
   0.347061841980957   0.047828324908408   0.685032155620397
   0.847061841980957   0.047828324908408   0.685032155620397
   0.347061841980957   0.547828324908408   0.685032155620397
   0.847061841980957   0.547828324908408   0.685032155620397
   0.200831013733845   0.047828182227846   0.435031351783893
   0.700831013733845   0.047828182227846   0.435031351783893
   0.200831013733845   0.547828182227846   0.435031351783893
   0.700831013733845   0.547828182227846   0.435031351783893
   0.200831013733845   0.047828182227846   0.935031351783893
   0.700831013733845   0.047828182227846   0.935031351783893
   0.200831013733845   0.547828182227846   0.935031351783893
   0.700831013733845   0.547828182227846   0.935031351783893
   0.347060997390297   0.299168725678316   0.435030442776818
   0.847060997390297   0.299168725678316   0.435030442776818
   0.347060997390297   0.799168725678316   0.435030442776818
   0.847060997390297   0.799168725678316   0.435030442776818
   0.347060997390297   0.299168725678316   0.935030442776818
   0.847060997390297   0.299168725678316   0.935030442776818
   0.347060997390297   0.799168725678316   0.935030442776818
   0.847060997390297   0.799168725678316   0.935030442776818
   0.452171690950649   0.152938170797892   0.435032157234631
   0.952171690950649   0.152938170797892   0.435032157234631
   0.452171690950649   0.652938170797892   0.435032157234631
   0.952171690950649   0.652938170797892   0.435032157234631
   0.452171690950649   0.152938170797892   0.935032157234631
   0.952171690950649   0.152938170797892   0.935032157234631
   0.452171690950649   0.652938170797892   0.935032157234631
   0.952171690950649   0.652938170797892   0.935032157234631
   0.285492469209674   0.465844427815573   0.351665332585846
   0.785492469209674   0.465844427815573   0.351665332585846
   0.285492469209674   0.965844427815573   0.351665332585846
   0.785492469209674   0.965844427815573   0.351665332585846
   0.285492469209674   0.465844427815573   0.851665332585846
   0.785492469209674   0.465844427815573   0.851665332585846
   0.285492469209674   0.965844427815573   0.851665332585846
   0.785492469209674   0.965844427815573   0.851665332585846
   0.034153927696650   0.319584570676030   0.351667477145457
   0.534153927696650   0.319584570676030   0.351667477145457
   0.034153927696650   0.819584570676030   0.351667477145457
   0.534153927696650   0.819584570676030   0.351667477145457
   0.034153927696650   0.319584570676030   0.851667477145457
   0.534153927696650   0.319584570676030   0.851667477145457
   0.034153927696650   0.819584570676030   0.851667477145457
   0.534153927696650   0.819584570676030   0.851667477145457
   0.180414638032428   0.214505967733175   0.351663529523756
   0.680414638032428   0.214505967733175   0.351663529523756
   0.180414638032428   0.714505967733175   0.351663529523756
   0.680414638032428   0.714505967733175   0.351663529523756
   0.180414638032428   0.214505967733175   0.851663529523756
   0.680414638032428   0.214505967733175   0.851663529523756
   0.180414638032428   0.714505967733175   0.851663529523756
   0.680414638032428   0.714505967733175   0.851663529523756
   0.034155559030630   0.214507539601868   0.101665334700671
   0.534155559030630   0.214507539601868   0.101665334700671
   0.034155559030630   0.714507539601868   0.101665334700671
   0.534155559030630   0.714507539601868   0.101665334700671
   0.034155559030630   0.214507539601868   0.601665334700671
   0.534155559030630   0.214507539601868   0.601665334700671
   0.034155559030630   0.714507539601868   0.601665334700671
   0.534155559030630   0.714507539601868   0.601665334700671
   0.180415418756269   0.465846048326573   0.101667476854037
   0.680415418756269   0.465846048326573   0.101667476854037
   0.180415418756269   0.965846048326573   0.101667476854037
   0.680415418756269   0.965846048326573   0.101667476854037
   0.180415418756269   0.465846048326573   0.601667476854037
   0.680415418756269   0.465846048326573   0.601667476854037
   0.180415418756269   0.965846048326573   0.601667476854037
   0.680415418756269   0.965846048326573   0.601667476854037
   0.285494058214207   0.319585376196962   0.101663533224913
   0.785494058214207   0.319585376196962   0.101663533224913
   0.285494058214207   0.819585376196962   0.101663533224913
   0.785494058214207   0.819585376196962   0.101663533224913
   0.285494058214207   0.319585376196962   0.601663533224913
   0.785494058214207   0.319585376196962   0.601663533224913
   0.285494058214207   0.819585376196962   0.601663533224913
   0.785494058214207   0.819585376196962   0.601663533224913
   0.076995206244281   0.008003058716442   0.020790150336734
   0.576995206244281   0.008003058716442   0.020790150336734
   0.076995206244281   0.508003058716441   0.020790150336734
   0.576995206244281   0.508003058716441   0.020790150336734
   0.076995206244281   0.008003058716442   0.520790150336734
   0.576995206244281   0.008003058716442   0.520790150336734
   0.076995206244281   0.508003058716441   0.520790150336734
   0.576995206244281   0.508003058716441   0.520790150336734
   0.491995561036836   0.068926606791470   0.020791761349172
   0.991995561036836   0.068926606791470   0.020791761349172
   0.491995561036836   0.568926606791470   0.020791761349172
   0.991995561036836   0.568926606791470   0.020791761349172
   0.491995561036836   0.068926606791470   0.520791761349172
   0.991995561036836   0.068926606791470   0.520791761349172
   0.491995561036836   0.568926606791470   0.520791761349172
   0.991995561036836   0.568926606791470   0.520791761349172
   0.431072356195984   0.423003811718963   0.020790306636065
   0.931072356195984   0.423003811718963   0.020790306636065
   0.431072356195984   0.923003811718963   0.020790306636065
   0.931072356195984   0.923003811718963   0.020790306636065
   0.431072356195984   0.423003811718963   0.520790306636065
   0.931072356195984   0.423003811718963   0.520790306636065
   0.431072356195984   0.923003811718963   0.520790306636065
   0.931072356195984   0.923003811718963   0.520790306636065
   0.491996934029152   0.423004812882059   0.270790139065591
   0.991996934029152   0.423004812882059   0.270790139065591
   0.491996934029152   0.923004812882059   0.270790139065591
   0.991996934029152   0.923004812882059   0.270790139065591
   0.491996934029152   0.423004812882059   0.770790139065591
   0.991996934029152   0.423004812882059   0.770790139065591
   0.491996934029152   0.923004812882059   0.770790139065591
   0.991996934029152   0.923004812882059   0.770790139065591
   0.431073353670923   0.008004415655849   0.270791777165432
   0.931073353670923   0.008004415655849   0.270791777165432
   0.431073353670923   0.508004415655849   0.270791777165432
   0.931073353670923   0.508004415655849   0.270791777165432
   0.431073353670923   0.008004415655849   0.770791777165432
   0.931073353670923   0.008004415655849   0.770791777165432
   0.431073353670923   0.508004415655849   0.770791777165432
   0.931073353670923   0.508004415655849   0.770791777165432
   0.076996183419429   0.068927610158567   0.270790307048719
   0.576996183419429   0.068927610158567   0.270790307048719
   0.076996183419429   0.568927610158567   0.270790307048719
   0.576996183419429   0.568927610158567   0.270790307048719
   0.076996183419429   0.068927610158567   0.770790307048719
   0.576996183419429   0.068927610158567   0.770790307048719
   0.076996183419429   0.568927610158567   0.770790307048719
   0.576996183419429   0.568927610158567   0.770790307048719
   0.410317943855998   0.174643233791837   0.187483850078901
   0.910317943855998   0.174643233791837   0.187483850078901
   0.410317943855998   0.674643233791837   0.187483850078901
   0.910317943855998   0.674643233791837   0.187483850078901
   0.410317943855998   0.174643233791837   0.687483850078900
   0.910317943855998   0.174643233791837   0.687483850078900
   0.410317943855998   0.674643233791837   0.687483850078900