 C  O  N  H 
 1.0000000000000000
    11.2595268646914182    0.0000000000000000    0.0000000000000000
     0.0000000000000000   11.2595268646914182    0.0000000000000000
     0.0000000000000000    0.0000000000000000   19.0011870488353445
 C   O   N   H  
  32  32  64 128
Cartesian
 -0.0000003586961879  2.4046023939112597  1.5424752948547198
  5.6297630736495323  2.4046023939112682  1.5424752948546177
 -0.0000003586961758  8.0343658262569786  1.5424752948547098
  5.6297630736495421  8.0343658262569910  1.5424752948546594
 -0.0000003586961835  2.4046023939112624  6.2927720570635977
  5.6297630736495288  2.4046023939112615  6.2927720570636332
 -0.0000003586961698  8.0343658262569804  6.2927720570635968
  5.6297630736495217  8.0343658262569733  6.2927720570636483
 -0.0000003586961878  2.4046023939112549 11.0430688192723867
  5.6297630736495243  2.4046023939112620 11.0430688192723672
 -0.0000003586961796  8.0343658262569733 11.0430688192723938
  5.6297630736495350  8.0343658262569821 11.0430688192723867
 -0.0000003586961717  2.4046023939112713 15.7933655814812557
  5.6297630736495359  2.4046023939112713 15.7933655814813481
 -0.0000003586961806  8.0343658262569697 15.7933655814812663
  5.6297630736495199  8.0343658262569697 15.7933655814812841
  2.8148812087359039  5.2194841195275119  3.2078211955461455
  8.4446446410816307  5.2194841195274968  3.2078211955461309
  2.8148812087359070 10.8492475518732174  3.2078211955460936
  8.4446446410816272 10.8492475518732050  3.2078211955460461
  2.8148812087359141  5.2194841195275021  7.9581179577548031
  8.4446446410816201  5.2194841195275030  7.9581179577548058
  2.8148812087359145 10.8492475518732103  7.9581179577548280
  8.4446446410816218 10.8492475518732068  7.9581179577548831
  2.8148812087359105  5.2194841195275066 12.7084147199637734
  8.4446446410816272  5.2194841195274995 12.7084147199637787
  2.8148812087359176 10.8492475518732050 12.7084147199637325
  8.4446446410816325 10.8492475518732014 12.7084147199636828
  2.8148812087359243  5.2194841195274941 17.4587114821724931
  8.4446446410816165  5.2194841195275199 17.4587114821724789
  2.8148812087359083 10.8492475518732228 17.4587114821725322
  8.4446446410816236 10.8492475518732121 17.4587114821726175
  5.6297631428950412  2.4046021695263602  2.8171349393279677
 11.2595265752407485  2.4046021695263633  2.8171349393279130
  5.6297631428950394  8.0343656018720679  2.8171349393279375
 11.2595265752407556  8.0343656018720715  2.8171349393279255
  5.6297631428950492  2.4046021695263620  7.5674317015367354
 11.2595265752407574  2.4046021695263611  7.5674317015367576
  5.6297631428950474  8.0343656018720750  7.5674317015367345
 11.2595265752407574  8.0343656018720697  7.5674317015367487
  5.6297631428950439  2.4046021695263642 12.3177284637456221
 11.2595265752407592  2.4046021695263633 12.3177284637456097
  5.6297631428950501  8.0343656018720733 12.3177284637456204
 11.2595265752407574  8.0343656018720715 12.3177284637456097
  5.6297631428950501  2.4046021695263637 17.0680252259543899
 11.2595265752407574  2.4046021695263615 17.0680252259544254
  5.6297631428950448  8.0343656018720679 17.0680252259544041
 11.2595265752407538  8.0343656018720715 17.0680252259544289
  2.8148814926905992  5.2194845493537922  1.9331614626746765
  8.4446449250363074  5.2194845493537976  1.9331614626746765
  2.8148814926906014 10.8492479816995022  1.9331614626747011
  8.4446449250363020 10.8492479816995040  1.9331614626747164
  2.8148814926905930  5.2194845493537940  6.6834582248835819
  8.4446449250362967  5.2194845493538002  6.6834582248835845
  2.8148814926905974 10.8492479816995058  6.6834582248835632
  8.4446449250363038 10.8492479816995004  6.6834582248835481
  2.8148814926906018  5.2194845493537931 11.4337549870923709
  8.4446449250363074  5.2194845493537967 11.4337549870923638
  2.8148814926906005 10.8492479816995004 11.4337549870923798
  8.4446449250363091 10.8492479816995004 11.4337549870923905
  2.8148814926905903  5.2194845493538002 16.1840517493012044
  8.4446449250363127  5.2194845493537985 16.1840517493012577
  2.8148814926906049 10.8492479816995022 16.1840517493012328
  8.4446449250363127 10.8492479816995022 16.1840517493011582
  0.8205163224407107  3.2251195060305937  0.8387728646110670
  6.4502797547864619  3.2251195060306395  0.8387728646111622
  0.8205163224407087  8.8548829383763046  0.8387728646110795
  6.4502797547864130  8.8548829383763188  0.8387728646111582
  0.8205163224406813  3.2251195060305680  5.5890696268198008
  6.4502797547863793  3.2251195060305533  5.5890696268197706
  0.8205163224406834  8.8548829383762815  5.5890696268198257
  6.4502797547863731  8.8548829383762762  5.5890696268197724
  0.8205163224407106  3.2251195060305990 10.3393663890287151
  6.4502797547864281  3.2251195060306044 10.3393663890287417
  0.8205163224407038  8.8548829383763028 10.3393663890287009
  6.4502797547864059  8.8548829383763028 10.3393663890287133
  0.8205163224406785  3.2251195060305653 15.0896631512375077
  6.4502797547863695  3.2251195060305493 15.0896631512374135
  0.8205163224407004  8.8548829383762975 15.0896631512375112
  6.4502797547863961  8.8548829383762939 15.0896631512375272
  4.8092460877534373  1.5840856729164259  0.8387728371920428
 10.4390095200991908  1.5840856729164794  0.8387728371919448
  4.8092460877534551  7.2138491052621418  0.8387728371920602
 10.4390095200991730  7.2138491052621676  0.8387728371919743
  4.8092460877535075  1.5840856729164923  5.5890695994006645
 10.4390095200991802  1.5840856729164723  5.5890695994007000
  4.8092460877535173  7.2138491052622120  5.5890695994006609
 10.4390095200992068  7.2138491052621951  5.5890695994007240
  4.8092460877534657  1.5840856729164603 10.3393663616096241
 10.4390095200991855  1.5840856729164621 10.3393663616096010
  4.8092460877534631  7.2138491052621614 10.3393663616096152
 10.4390095200991730  7.2138491052621587 10.3393663616095974
  4.8092460877535075  1.5840856729164954 15.0896631238183172
 10.4390095200991890  1.5840856729164654 15.0896631238184131
  4.8092460877535022  7.2138491052622085 15.0896631238184025
 10.4390095200992015  7.2138491052621889 15.0896631238183918
  3.6353980416196610  4.3989669704436594  3.9115238336128875
  9.2651614739653567  4.3989669704436638  3.9115238336129337
  3.6353980416196445 10.0287304027893747  3.9115238336129443
  9.2651614739653283 10.0287304027893995  3.9115238336130149
  3.6353980416195926  4.3989669704437278  8.6618205958219452
  9.2651614739652981  4.3989669704437215  8.6618205958219434
  3.6353980416196006 10.0287304027894262  8.6618205958219416
  9.2651614739653283 10.0287304027893942  8.6618205958218741
  3.6353980416196374  4.3989669704436807 13.4121173580306454
  9.2651614739653461  4.3989669704436789 13.4121173580306401
  3.6353980416196228 10.0287304027894031 13.4121173580307058
  9.2651614739653159 10.0287304027894173 13.4121173580307591
  3.6353980416196010  4.3989669704437198 18.1624141202397063
  9.2651614739652999  4.3989669704437340 18.1624141202396281
  3.6353980416196090 10.0287304027894297 18.1624141202395357
  9.2651614739653656 10.0287304027893747 18.1624141202395215
  1.9943644034337520  0.4102378021464275  3.9115238651793960
  7.6241278357794648  0.4102378021464222  3.9115238651794533
  1.9943644034337347  6.0400012344921503  3.9115238651793405
  7.6241278357794373  6.0400012344921636  3.9115238651793676
  1.9943644034337851  0.4102378021463895  8.6618206273883835
  7.6241278357794844  0.4102378021464068  8.6618206273883178
  1.9943644034337891  6.0400012344920988  8.6618206273883871
  7.6241278357795084  6.0400012344920873  8.6618206273883978
  1.9943644034337733  0.4102378021464054 13.4121173895971459
  7.6241278357794888  0.4102378021463975 13.4121173895971939
  1.9943644034337566  6.0400012344921299 13.4121173895970891
  7.6241278357794657  6.0400012344921343 13.4121173895970820
  1.9943644034337749  0.4102378021464024 18.1624141518059794
  7.6241278357794595  0.4102378021464264 18.1624141518059723
  1.9943644034337777  6.0400012344921121 18.1624141518061428
  7.6241278357795093  6.0400012344921015 18.1624141518060718
  1.4459939404699358  3.8505904837271108  1.3357391280898114
  7.0757573728156178  3.8505904837270859  1.3357391280897857
  1.4459939404699353  9.4803539160728327  1.3357391280898130
  7.0757573728156293  9.4803539160728167  1.3357391280897983
  1.4459939404699684  3.8505904837271414  6.0860358902986738
  7.0757573728156844  3.8505904837271530  6.0860358902986826
  1.4459939404699558  9.4803539160728434  6.0860358902986631
  7.0757573728156737  9.4803539160728665  6.0860358902986817
  1.4459939404699427  3.8505904837271174 10.8363326525074886
  7.0757573728156498  3.8505904837271130 10.8363326525074868
  1.4459939404699422  9.4803539160728381 10.8363326525074939
  7.0757573728156569  9.4803539160728381 10.8363326525074974
  1.4459939404699642  3.8505904837271401 15.5866294147163416
  7.0757573728156915  3.8505904837271596 15.5866294147163629
  1.4459939404699540  9.4803539160728416 15.5866294147163451
  7.0757573728156604  9.4803539160728398 15.5866294147163416
  4.1837688309325642  0.9586142495255002  1.3357389823463715
  9.8135322632782334  0.9586142495254643  1.3357389823464099
  4.1837688309325607  6.5883776818711937  1.3357389823463872
  9.8135322632782529  6.5883776818711892  1.3357389823464028
  4.1837688309325136  0.9586142495254445  6.0860357445552760
  9.8135322632782422  0.9586142495254628  6.0860357445552626
  4.1837688309325083  6.5883776818711457  6.0860357445552831
  9.8135322632782263  6.5883776818711546  6.0860357445552715
  4.1837688309325456  0.9586142495254777 10.8363325067640783
  9.8135322632782440  0.9586142495254680 10.8363325067640854
  4.1837688309325474  6.5883776818711866 10.8363325067640854
  9.8135322632782582  6.5883776818711794 10.8363325067640819
  4.1837688309325118  0.9586142495254423 15.5866292689729580
  9.8135322632782458  0.9586142495254700 15.5866292689729278
  4.1837688309325145  6.5883776818711608 15.5866292689729402
  9.8135322632782369  6.5883776818711661 15.5866292689729313
  4.2608756219686557  3.7734960172308072  3.4145573222433212
  9.8906390543143630  3.7734960172307970  3.4145573222433132
  4.2608756219686628  9.4032594495765061  3.4145573222433119
  9.8906390543143825  9.4032594495764830  3.4145573222432914
  4.2608756219687081  3.7734960172307512  8.1648540844520969
  9.8906390543144109  3.7734960172307526  8.1648540844520863
  4.2608756219687089  9.4032594495764688  8.1648540844521023
  9.8906390543143878  9.4032594495764812  8.1648540844521253
  4.2608756219686788  3.7734960172307899 12.9151508466609801
  9.8906390543143807  3.7734960172307943 12.9151508466609801
  4.2608756219686876  9.4032594495764847 12.9151508466609659
  9.8906390543144092  9.4032594495764741 12.9151508466609499
  4.2608756219687134  3.7734960172307530 17.6654476088697550
  9.8906390543144234  3.7734960172307508 17.6654476088697727
  4.2608756219686992  9.4032594495764705 17.6654476088697869
  9.8906390543143790  9.4032594495765007 17.6654476088698082
  1.3688871201478858  1.0357091642443161  3.4145574841448236
  6.9986505524935883  1.0357091642443272  3.4145574841448134
  1.3688871201479016  6.6654725965900088  3.4145574841448427
  6.9986505524936131  6.6654725965900186  3.4145574841448361
  1.3688871201478567  1.0357091642443470  8.1648542463536327
  6.9986505524935767  1.0357091642443381  8.1648542463536451
  1.3688871201478499  6.6654725965900559  8.1648542463536273
  6.9986505524935509  6.6654725965900656  8.1648542463536256
  1.3688871201478701  1.0357091642443297 12.9151510085624821
  6.9986505524935678  1.0357091642443432 12.9151510085624608
  1.3688871201478814  6.6654725965900230 12.9151510085624981
  6.9986505524935909  6.6654725965900301 12.9151510085625016
  1.3688871201478727  1.0357091642443301 17.6654477707713156
  6.9986505524935891  1.0357091642443266 17.6654477707713191
  1.3688871201478487  6.6654725965900612 17.6654477707712942
  6.9986505524935643  6.6654725965900665 17.6654477707713014
  0.8198785901560481  3.2244823498506130  4.5749476222795211
  6.4496420225017665  3.2244823498506112  4.5749476222795362
  0.8198785901560565  8.8542457821963136  4.5749476222795149
  6.4496420225017603  8.8542457821963243  4.5749476222795407
  0.8198785901560498  3.2244823498506081  9.3252443844883235
  6.4496420225017657  3.2244823498506059  9.3252443844883164
  0.8198785901560540  8.8542457821963154  9.3252443844883306
  6.4496420225017594  8.8542457821963190  9.3252443844883306
  0.8198785901560542  3.2244823498506094 14.0755411466971800
  6.4496420225017674  3.2244823498506143 14.0755411466972280
  0.8198785901560623  8.8542457821963172 14.0755411466971889
  6.4496420225017657  8.8542457821963207 14.0755411466971747
  0.8198785901560538  3.2244823498506072 18.8258379089059815
  6.4496420225017612  3.2244823498506068 18.8258379089059460
  0.8198785901560550  8.8542457821963172 18.8258379089059780
  6.4496420225017541  8.8542457821963172 18.8258379089059460
  4.8098834738569627  1.5847230914214745  4.5749476455580531
 10.4396469062026700  1.5847230914214789  4.5749476455580416
  4.8098834738569636  7.2144865237671878  4.5749476455580567
 10.4396469062026771  7.2144865237671798  4.5749476455580194
  4.8098834738569733  1.5847230914214829  9.3252444077668262
 10.4396469062026807  1.5847230914214743  9.3252444077668422
  4.8098834738569716  7.2144865237671958  9.3252444077668422
 10.4396469062026842  7.2144865237671887  9.3252444077668422
  4.8098834738569636  1.5847230914214758 14.0755411699757378
 10.4396469062026789  1.5847230914214760 14.0755411699756898
  4.8098834738569600  7.2144865237671914 14.0755411699756845
 10.4396469062026878  7.2144865237671896 14.0755411699756969
  4.8098834738569840  1.5847230914214852 18.8258379321844416
 10.4396469062026807  1.5847230914214745 18.8258379321844878
  4.8098834738569751  7.2144865237671922 18.8258379321844380
 10.4396469062026895  7.2144865237671887 18.8258379321844878
  3.6347602790435629  4.3996042480316051  0.1753491801988061
  9.2645237113892627  4.3996042480316087  0.1753491801988719
  3.6347602790435500 10.0293676803773195  0.1753491801989080
  9.2645237113892538 10.0293676803773142  0.1753491801988974
  3.6347602790435456  4.3996042480316122  4.9256459424078090
  9.2645237113892538  4.3996042480316078  4.9256459424077823
  3.6347602790435443 10.0293676803773160  4.9256459424077832
  9.2645237113892556 10.0293676803773106  4.9256459424077432
  3.6347602790435558  4.3996042480316051  9.6759427046165332
  9.2645237113892698  4.3996042480315980  9.6759427046165278
  3.6347602790435545 10.0293676803773106  9.6759427046165349
  9.2645237113892556 10.0293676803773071  9.6759427046165705
  3.6347602790435491  4.3996042480316060 14.4262394668254483
  9.2645237113892573  4.3996042480316113 14.4262394668254448
  3.6347602790435505 10.0293676803773124 14.4262394668254146
  9.2645237113892698 10.0293676803773213 14.4262394668253791
  1.9950018178789910  0.4096002109105601  0.1753491752672479
  7.6247652502246979  0.4096002109105558  0.1753491752672508
  1.9950018178789881  6.0393636432562703  0.1753491752671797
  7.6247652502246961  6.0393636432562765  0.1753491752672141
  1.9950018178789912  0.4096002109105594  4.9256459374761343
  7.6247652502246979  0.4096002109105609  4.9256459374761077
  1.9950018178789961  6.0393636432562632  4.9256459374761574
  7.6247652502246979  6.0393636432562650  4.9256459374761450
  1.9950018178789912  0.4096002109105581  9.6759426996848958
  7.6247652502246988  0.4096002109105588  9.6759426996849296
  1.9950018178789874  6.0393636432562712  9.6759426996848923
  7.6247652502246970  6.0393636432562721  9.6759426996848958
  1.9950018178789943  0.4096002109105583 14.4262394618937719
  7.6247652502246934  0.4096002109105575 14.4262394618937400
  1.9950018178789877  6.0393636432562641 14.4262394618937968
  7.6247652502247023  6.0393636432562650 14.4262394618938057
