 C  O  N  H 
 1.0000000000000000
    11.2521312760249330    0.0000000000000000   -0.0000000000000000
     0.0000000000000000   11.2521312760249330    0.0000000000000000
    -0.0000000000000000    0.0000000000000000   19.2147176852096351
 C   O   N   H  
  32  32  64 128
Selective dynamics
Cartesian
  0.0000008239733645  2.4030252546352577  1.5657395261518510   T   T   T
  5.6260664619858298  2.4030252546352577  1.5657395261518510   T   T   T
  0.0000008239733645  8.0290908926477229  1.5657395261518510   T   T   T
  5.6260664619858298  8.0290908926477229  1.5657395261518510   T   T   T
  0.0000008239733645  2.4030252546352577  6.3694189474542569   T   T   T
  5.6260664619858298  2.4030252546352577  6.3694189474542569   T   T   T
  0.0000008239733645  8.0290908926477229  6.3694189474542569   T   T   T
  5.6260664619858298  8.0290908926477229  6.3694189474542569   T   T   T
  0.0000008239733645  2.4030252546352577 11.1730983687566674   T   T   T
  5.6260664619858298  2.4030252546352577 11.1730983687566674   T   T   T
  0.0000008239733645  8.0290908926477229 11.1730983687566674   T   T   T
  5.6260664619858298  8.0290908926477229 11.1730983687566674   T   T   T
  0.0000008239733645  2.4030252546352577 15.9767777900590708   T   T   T
  5.6260664619858298  2.4030252546352577 15.9767777900590708   T   T   T
  0.0000008239733645  8.0290908926477229 15.9767777900590708   T   T   T
  5.6260664619858298  8.0290908926477229 15.9767777900590708   T   T   T
  2.8130336429795975  5.2160580736414905  3.2379408435283059   T   T   T
  8.4390992809920586  5.2160580736414905  3.2379408435283059   T   T   T
  2.8130336429795975 10.8421237116539544  3.2379408435283059   T   T   T
  8.4390992809920586 10.8421237116539544  3.2379408435283059   T   T   T
  2.8130336429795975  5.2160580736414905  8.0416202648307227   T   T   T
  8.4390992809920586  5.2160580736414905  8.0416202648307227   T   T   T
  2.8130336429795975 10.8421237116539544  8.0416202648307227   T   T   T
  8.4390992809920586 10.8421237116539544  8.0416202648307227   T   T   T
  2.8130336429795975  5.2160580736414905 12.8452996861331261   T   T   T
  8.4390992809920586  5.2160580736414905 12.8452996861331261   T   T   T
  2.8130336429795975 10.8421237116539544 12.8452996861331261   T   T   T
  8.4390992809920586 10.8421237116539544 12.8452996861331261   T   T   T
  2.8130336429795975  5.2160580736414905 17.6489791074355367   T   T   T
  8.4390992809920586  5.2160580736414905 17.6489791074355367   T   T   T
  2.8130336429795975 10.8421237116539544 17.6489791074355367   T   T   T
  8.4390992809920586 10.8421237116539544 17.6489791074355367   T   T   T
  5.6260664619858298  2.4030252546352577  2.8401509774722533   T   T   T
 11.2521320999982954  2.4030252546352577  2.8401509774722533   T   T   T
  5.6260664619858298  8.0290908926477229  2.8401509774722533   T   T   T
 11.2521320999982954  8.0290908926477229  2.8401509774722533   T   T   T
  5.6260664619858298  2.4030252546352577  7.6438303987746599   T   T   T
 11.2521320999982954  2.4030252546352577  7.6438303987746599   T   T   T
  5.6260664619858298  8.0290908926477229  7.6438303987746599   T   T   T
 11.2521320999982954  8.0290908926477229  7.6438303987746599   T   T   T
  5.6260664619858298  2.4030252546352577 12.4475098200770642   T   T   T
 11.2521320999982954  2.4030252546352577 12.4475098200770642   T   T   T
  5.6260664619858298  8.0290908926477229 12.4475098200770642   T   T   T
 11.2521320999982954  8.0290908926477229 12.4475098200770642   T   T   T
  5.6260664619858298  2.4030252546352577 17.2511892413794783   T   T   T
 11.2521320999982954  2.4030252546352577 17.2511892413794783   T   T   T
  5.6260664619858298  8.0290908926477229 17.2511892413794783   T   T   T
 11.2521320999982954  8.0290908926477229 17.2511892413794783   T   T   T
  2.8130336429795975  5.2160580736414905  1.9635293922079049   T   T   T
  8.4390992809920586  5.2160580736414905  1.9635293922079049   T   T   T
  2.8130336429795975 10.8421237116539544  1.9635293922079049   T   T   T
  8.4390992809920586 10.8421237116539544  1.9635293922079049   T   T   T
  2.8130336429795975  5.2160580736414905  6.7672088135103206   T   T   T
  8.4390992809920586  5.2160580736414905  6.7672088135103206   T   T   T
  2.8130336429795975 10.8421237116539544  6.7672088135103206   T   T   T
  8.4390992809920586 10.8421237116539544  6.7672088135103206   T   T   T
  2.8130336429795975  5.2160580736414905 11.5708882348127258   T   T   T
  8.4390992809920586  5.2160580736414905 11.5708882348127258   T   T   T
  2.8130336429795975 10.8421237116539544 11.5708882348127258   T   T   T
  8.4390992809920586 10.8421237116539544 11.5708882348127258   T   T   T
  2.8130336429795975  5.2160580736414905 16.3745676561151363   T   T   T
  8.4390992809920586  5.2160580736414905 16.3745676561151363   T   T   T
  2.8130336429795975 10.8421237116539544 16.3745676561151363   T   T   T
  8.4390992809920586 10.8421237116539544 16.3745676561151363   T   T   T
  0.8201114246418408  3.2231358553037337  0.8589722603407532   T   T   T
  6.4461770626543080  3.2231358553037337  0.8589722603407534   T   T   T
  0.8201114246418408  8.8492014933161975  0.8589722603407532   T   T   T
  6.4461770626543080  8.8492014933161975  0.8589722603407534   T   T   T
  0.8201114246418408  3.2231358553037337  5.6626516816431618   T   T   T
  6.4461770626543080  3.2231358553037337  5.6626516816431618   T   T   T
  0.8201114246418408  8.8492014933161975  5.6626516816431618   T   T   T
  6.4461770626543080  8.8492014933161975  5.6626516816431618   T   T   T
  0.8201114246418408  3.2231358553037333 10.4663311029455723   T   T   T
  6.4461770626543080  3.2231358553037333 10.4663311029455723   T   T   T
  0.8201114246418408  8.8492014933161975 10.4663311029455723   T   T   T
  6.4461770626543080  8.8492014933161975 10.4663311029455723   T   T   T
  0.8201114246418408  3.2231358553037333 15.2700105242479722   T   T   T
  6.4461770626543080  3.2231358553037333 15.2700105242479722   T   T   T
  0.8201114246418408  8.8492014933161975 15.2700105242479722   T   T   T
  6.4461770626543080  8.8492014933161975 15.2700105242479722   T   T   T
  4.8059558613173472  1.5829146539667833  0.8589722603407534   T   T   T
 10.4320214993298102  1.5829146539667833  0.8589722603407534   T   T   T
  4.8059558613173472  7.2089802919792429  0.8589722603407532   T   T   T
 10.4320214993298102  7.2089802919792429  0.8589722603407534   T   T   T
  4.8059558613173472  1.5829146539667833  5.6626516816431618   T   T   T
 10.4320214993298102  1.5829146539667833  5.6626516816431618   T   T   T
  4.8059558613173472  7.2089802919792429  5.6626516816431618   T   T   T
 10.4320214993298102  7.2089802919792429  5.6626516816431618   T   T   T
  4.8059558613173472  1.5829146539667833 10.4663311029455723   T   T   T
 10.4320214993298102  1.5829146539667833 10.4663311029455723   T   T   T
  4.8059558613173472  7.2089802919792429 10.4663311029455723   T   T   T
 10.4320214993298102  7.2089802919792429 10.4663311029455723   T   T   T
  4.8059558613173472  1.5829146539667833 15.2700105242479722   T   T   T
 10.4320214993298102  1.5829146539667833 15.2700105242479722   T   T   T
  4.8059558613173472  7.2089802919792429 15.2700105242479722   T   T   T
 10.4320214993298102  7.2089802919792429 15.2700105242479722   T   T   T
  3.6331442436480721  4.3959474729730088  3.9447081093394023   T   T   T
  9.2592098816605350  4.3959474729730088  3.9447081093394023   T   T   T
  3.6331442436480721 10.0220131109854691  3.9447081093394023   T   T   T
  9.2592098816605350 10.0220131109854691  3.9447081093394023   T   T   T
  3.6331442436480721  4.3959474729730088  8.7483875306418142   T   T   T
  9.2592098816605350  4.3959474729730088  8.7483875306418142   T   T   T
  3.6331442436480721 10.0220131109854691  8.7483875306418142   T   T   T
  9.2592098816605350 10.0220131109854691  8.7483875306418142   T   T   T
  3.6331442436480716  4.3959474729730088 13.5520669519442194   T   T   T
  9.2592098816605350  4.3959474729730088 13.5520669519442194   T   T   T
  3.6331442436480716 10.0220131109854691 13.5520669519442194   T   T   T
  9.2592098816605350 10.0220131109854691 13.5520669519442194   T   T   T
  3.6331442436480721  4.3959474729730088 18.3557463732466353   T   T   T
  9.2592098816605350  4.3959474729730088 18.3557463732466353   T   T   T
  3.6331442436480721 10.0220131109854691 18.3557463732466353   T   T   T
  9.2592098816605350 10.0220131109854691 18.3557463732466353   T   T   T
  1.9929230423111215  0.4101030362975022  3.9447081093394023   T   T   T
  7.6189886803235822  0.4101030362975022  3.9447081093394023   T   T   T
  1.9929230423111215  6.0361686743099652  3.9447081093394023   T   T   T
  7.6189886803235822  6.0361686743099652  3.9447081093394027   T   T   T
  1.9929230423111215  0.4101030362975022  8.7483875306418142   T   T   T
  7.6189886803235822  0.4101030362975022  8.7483875306418142   T   T   T
  1.9929230423111215  6.0361686743099652  8.7483875306418142   T   T   T
  7.6189886803235822  6.0361686743099652  8.7483875306418142   T   T   T
  1.9929230423111215  0.4101030362975022 13.5520669519442194   T   T   T
  7.6189886803235822  0.4101030362975022 13.5520669519442194   T   T   T
  1.9929230423111215  6.0361686743099652 13.5520669519442194   T   T   T
  7.6189886803235822  6.0361686743099652 13.5520669519442194   T   T   T
  1.9929230423111215  0.4101030362975022 18.3557463732466353   T   T   T
  7.6189886803235822  0.4101030362975022 18.3557463732466353   T   T   T
  1.9929230423111215  6.0361686743099652 18.3557463732466353   T   T   T
  7.6189886803235822  6.0361686743099652 18.3557463732466353   T   T   T
  1.4464501008930679  3.8494745315549599  1.3541818553776899   T   T   T
  7.0725157389055315  3.8494745315549599  1.3541818553776899   T   T   T
  1.4464501008930679  9.4755401695674220  1.3541818553776899   T   T   T
  7.0725157389055315  9.4755401695674220  1.3541818553776899   T   T   T
  1.4464501008930679  3.8494745315549599  6.1578612766800997   T   T   T
  7.0725157389055315  3.8494745315549599  6.1578612766800997   T   T   T
  1.4464501008930679  9.4755401695674220  6.1578612766800997   T   T   T
  7.0725157389055315  9.4755401695674220  6.1578612766800997   T   T   T
  1.4464501008930679  3.8494745315549599 10.9615406979825192   T   T   T
  7.0725157389055315  3.8494745315549599 10.9615406979825192   T   T   T
  1.4464501008930679  9.4755401695674220 10.9615406979825192   T   T   T
  7.0725157389055315  9.4755401695674220 10.9615406979825192   T   T   T
  1.4464501008930679  3.8494745315549599 15.7652201192849173   T   T   T
  7.0725157389055315  3.8494745315549599 15.7652201192849173   T   T   T
  1.4464501008930679  9.4755401695674220 15.7652201192849173   T   T   T
  7.0725157389055315  9.4755401695674220 15.7652201192849173   T   T   T
  4.1796171850661237  0.9565759777155552  1.3541818553776899   T   T   T
  9.8056828230785875  0.9565759777155552  1.3541818553776899   T   T   T
  4.1796171850661237  6.5826416157280194  1.3541818553776899   T   T   T
  9.8056828230785875  6.5826416157280194  1.3541818553776899   T   T   T
  4.1796171850661237  0.9565759777155552  6.1578612766800989   T   T   T
  9.8056828230785875  0.9565759777155552  6.1578612766800989   T   T   T
  4.1796171850661237  6.5826416157280194  6.1578612766800989   T   T   T
  9.8056828230785875  6.5826416157280194  6.1578612766800989   T   T   T
  4.1796171850661237  0.9565759777155552 10.9615406979825192   T   T   T
  9.8056828230785875  0.9565759777155552 10.9615406979825192   T   T   T
  4.1796171850661237  6.5826416157280194 10.9615406979825192   T   T   T
  9.8056828230785875  6.5826416157280194 10.9615406979825192   T   T   T
  4.1796171850661237  0.9565759777155552 15.7652201192849173   T   T   T
  9.8056828230785875  0.9565759777155552 15.7652201192849173   T   T   T
  4.1796171850661237  6.5826416157280194 15.7652201192849173   T   T   T
  9.8056828230785875  6.5826416157280194 15.7652201192849173   T   T   T
  4.2594829198992974  3.7696087967217893  3.4494985143024692   T   T   T
  9.8855485579117666  3.7696087967217893  3.4494985143024692   T   T   T
  4.2594829198992974  9.3956744347342500  3.4494985143024692   T   T   T
  9.8855485579117666  9.3956744347342500  3.4494985143024692   T   T   T
  4.2594829198992974  3.7696087967217893  8.2531779356048709   T   T   T
  9.8855485579117666  3.7696087967217893  8.2531779356048709   T   T   T
  4.2594829198992974  9.3956744347342500  8.2531779356048709   T   T   T
  9.8855485579117666  9.3956744347342500  8.2531779356048709   T   T   T
  4.2594829198992974  3.7696087967217893 13.0568573569072726   T   T   T
  9.8855485579117666  3.7696087967217893 13.0568573569072726   T   T   T
  4.2594829198992974  9.3956744347342500 13.0568573569072726   T   T   T
  9.8855485579117666  9.3956744347342500 13.0568573569072726   T   T   T
  4.2594829198992974  3.7696087967217893 17.8605367782096920   T   T   T
  9.8855485579117666  3.7696087967217893 17.8605367782096920   T   T   T
  4.2594829198992974  9.3956744347342500 17.8605367782096920   T   T   T
  9.8855485579117666  9.3956744347342500 17.8605367782096920   T   T   T
  1.3665843660598942  1.0364417125487282  3.4494985143024692   T   T   T
  6.9926500040723552  1.0364417125487282  3.4494985143024692   T   T   T
  1.3665843660598942  6.6625073505611914  3.4494985143024692   T   T   T
  6.9926500040723552  6.6625073505611914  3.4494985143024692   T   T   T
  1.3665843660598942  1.0364417125487282  8.2531779356048709   T   T   T
  6.9926500040723552  1.0364417125487282  8.2531779356048709   T   T   T
  1.3665843660598942  6.6625073505611914  8.2531779356048709   T   T   T
  6.9926500040723552  6.6625073505611914  8.2531779356048709   T   T   T
  1.3665843660598942  1.0364417125487282 13.0568573569072726   T   T   T
  6.9926500040723552  1.0364417125487282 13.0568573569072726   T   T   T
  1.3665843660598942  6.6625073505611914 13.0568573569072726   T   T   T
  6.9926500040723552  6.6625073505611914 13.0568573569072726   T   T   T
  1.3665843660598942  1.0364417125487282 17.8605367782096920   T   T   T
  6.9926500040723552  1.0364417125487282 17.8605367782096920   T   T   T
  1.3665843660598942  6.6625073505611914 17.8605367782096920   T   T   T
  6.9926500040723552  6.6625073505611914 17.8605367782096920   T   T   T
  0.8187713574262646  3.2217957880881589  4.6484817066526833   T   T   T
  6.4448369954387283  3.2217957880881589  4.6484817066526833   T   T   T
  0.8187713574262646  8.8478614261006179  4.6484817066526833   T   T   T
  6.4448369954387283  8.8478614261006179  4.6484817066526833   T   T   T
  0.8187713574262646  3.2217957880881589  9.4521611279550779   T   T   T
  6.4448369954387283  3.2217957880881589  9.4521611279550779   T   T   T
  0.8187713574262646  8.8478614261006179  9.4521611279550779   T   T   T
  6.4448369954387283  8.8478614261006179  9.4521611279550779   T   T   T
  0.8187713574262646  3.2217957880881589 14.2558405492574902   T   T   T
  6.4448369954387283  3.2217957880881589 14.2558405492574902   T   T   T
  0.8187713574262646  8.8478614261006179 14.2558405492574902   T   T   T
  6.4448369954387283  8.8478614261006179 14.2558405492574902   T   T   T
  0.8187713574262646  3.2217957880881589 19.0595199705599221   T   T   T
  6.4448369954387283  3.2217957880881589 19.0595199705599221   T   T   T
  0.8187713574262646  8.8478614261006179 19.0595199705599221   T   T   T
  6.4448369954387283  8.8478614261006179 19.0595199705599221   T   T   T
  4.8072959285329286  1.5842547211823568  4.6484817066526833   T   T   T
 10.4333615665453934  1.5842547211823568  4.6484817066526833   T   T   T
  4.8072959285329286  7.2103203591948253  4.6484817066526833   T   T   T
 10.4333615665453934  7.2103203591948253  4.6484817066526833   T   T   T
  4.8072959285329286  1.5842547211823568  9.4521611279550779   T   T   T
 10.4333615665453934  1.5842547211823568  9.4521611279550779   T   T   T
  4.8072959285329286  7.2103203591948253  9.4521611279550779   T   T   T
 10.4333615665453934  7.2103203591948253  9.4521611279550779   T   T   T
  4.8072959285329286  1.5842547211823568 14.2558405492574902   T   T   T
 10.4333615665453934  1.5842547211823568 14.2558405492574902   T   T   T
  4.8072959285329286  7.2103203591948253 14.2558405492574902   T   T   T
 10.4333615665453934  7.2103203591948253 14.2558405492574902   T   T   T
  4.8072959285329286  1.5842547211823568 19.0595199705599221   T   T   T
 10.4333615665453934  1.5842547211823568 19.0595199705599221   T   T   T
  4.8072959285329286  7.2103203591948253 19.0595199705599221   T   T   T
 10.4333615665453934  7.2103203591948253 19.0595199705599221   T   T   T
  3.6318041764324964  4.3972875401885894  0.1551986630274736   T   T   T
  9.2578698144449536  4.3972875401885894  0.1551986630274736   T   T   T
  3.6318041764324964 10.0233531782010559  0.1551986630274736   T   T   T
  9.2578698144449536 10.0233531782010559  0.1551986630274736   T   T   T
  3.6318041764324964  4.3972875401885894  4.9588780843298812   T   T   T
  9.2578698144449536  4.3972875401885894  4.9588780843298812   T   T   T
  3.6318041764324964 10.0233531782010559  4.9588780843298812   T   T   T
  9.2578698144449536 10.0233531782010559  4.9588780843298812   T   T   T
  3.6318041764324964  4.3972875401885894  9.7625575056323086   T   T   T
  9.2578698144449536  4.3972875401885894  9.7625575056323086   T   T   T
  3.6318041764324964 10.0233531782010559  9.7625575056323086   T   T   T
  9.2578698144449536 10.0233531782010559  9.7625575056323086   T   T   T
  3.6318041764324964  4.3972875401885894 14.5662369269347138   T   T   T
  9.2578698144449536  4.3972875401885894 14.5662369269347138   T   T   T
  3.6318041764324964 10.0233531782010559 14.5662369269347138   T   T   T
  9.2578698144449536 10.0233531782010559 14.5662369269347138   T   T   T
  1.9942631095266954  0.4087629690819262  0.1551986630274736   T   T   T
  7.6203287475391583  0.4087629690819262  0.1551986630274736   T   T   T
  1.9942631095266954  6.0348286070943873  0.1551986630274736   T   T   T
  7.6203287475391583  6.0348286070943873  0.1551986630274736   T   T   T
  1.9942631095266954  0.4087629690819262  4.9588780843298812   T   T   T
  7.6203287475391583  0.4087629690819262  4.9588780843298812   T   T   T
  1.9942631095266954  6.0348286070943873  4.9588780843298812   T   T   T
  7.6203287475391583  6.0348286070943873  4.9588780843298812   T   T   T
  1.9942631095266954  0.4087629690819262  9.7625575056323086   T   T   T
  7.6203287475391583  0.4087629690819262  9.7625575056323086   T   T   T
  1.9942631095266954  6.0348286070943873  9.7625575056323086   T   T   T
  7.6203287475391583  6.0348286070943873  9.7625575056323086   T   T   T
  1.9942631095266954  0.4087629690819262 14.5662369269347138   T   T   T
  7.6203287475391583  0.4087629690819262 14.5662369269347138   T   T   T
  1.9942631095266954  6.0348286070943873 14.5662369269347138   T   T   T
  7.6203287475391583  6.0348286070943873 14.5662369269347138   T   T   T
