 C  H  N  O 
 1.0000000000000000
    14.2934687522670441    0.0000029175211732   -0.0474529482083120
    -0.0000045659742564   18.0042492660854876    0.0000280351496892
    -1.6000837818375306   -0.0000183391031961   12.0862743582151673
 C   H   N   O  
 128 144  16  32
Cartesian
 -0.8921751854926483  5.8416345486209105 11.3072073335042163
  2.0654149708347664  1.3405794440487349  6.8103522288751810
  6.4388235061784389  3.1604732185723794  0.7553545500310012
  3.4812333149462793  7.6615283182484095  5.2522096920913501
  1.8223589621073280  5.8527855655259264  0.0762698190496893
  0.9509644245707130  1.3517142644072477  5.9550156490219655
  3.7242893368931580  3.1493221887735450 11.9862920938985162
  4.5956838850135977  7.6503934551202919  6.1075462413423418
  1.8227851361116787  6.6678281119440310  1.2122195283456065
  0.9505376851183110  2.1667602492313405  4.8190684042958960
  3.7238631522893830  2.3342796517328641 10.8503423767595102
  4.5961106397846274  6.8353474441445909  7.2434934647993883
  0.7157412215982900  7.4728869576003092  1.5120220580020718
  2.0575812097964623  2.9718204602842890  4.5192681048610632
  4.8309070761721342  1.5292208304298416 10.5505398130619117
  3.4890671079035549  6.0302872500845996  7.5432937805898934
  6.7400800385313806  7.4473173867667812  0.6488865076282436
  3.1799769457926743  2.9462473411248813  5.3586768780892413
 -1.1934317193436987  1.5547904193736721 11.4136753340994357
  2.3666713508946269  6.0558604051399927  6.7038850361074154
  5.1395722815184026  6.6373243874025256 11.6012515761872201
  3.1804014959821418  2.1362692330192679  6.4925837004255520
  0.4070760485450338  2.3647834102642920  0.4613102685229363
  2.3662467859941883  6.8658385383122136  5.5699782330088494
 -0.0245839092271225  4.3882783863504873  9.4359477898498785
  1.1978223504353542  8.8893419227881605  8.6816215642822598
  5.5712322741548661  4.6138293530440189  2.6266141338782951
  4.3488259129135480  0.1127658325577047  3.3809403462435808
 -0.5078281435439682  3.6061651815626230  8.2231603146946366
  1.6810671077736068  8.1072254404284951  9.8944067125387107
  6.0544765428372855  5.3959425382285247  3.8394016107470343
  3.8655811461140712  0.8948823397629839  2.1681552201062750
 -0.8921774684797765 14.8437591816636552 11.3072213510790611
  2.0654126878476382 10.3427040770914793  6.8103662464500259
  6.4388212231913107 12.1625978516151250  0.7553685676058458
  3.4812310319591511 16.6636529512911551  5.2522237096661950
  1.8223566791201997 14.8549101985686729  0.0762838366245339
  0.9509621415835848 10.3538388974499931  5.9550296665968103
  3.7242870539060302 12.1514468218162897 11.9863061114733647
  4.5956816020264695 16.6525180881630384  6.1075602589171858
  1.8227828531245505 15.6699527449867713  1.2122335459204512
  0.9505354021311828 11.1688848822740852  4.8190824218707409
  3.7238608693022548 11.3364042847756110 10.8503563943343533
  4.5961083567974992 15.8374720771873356  7.2435074823742323
  0.7157389386111618 16.4750115906430494  1.5120360755769162
  2.0575789268093341 11.9739450933270337  4.5192821224359081
  4.8309047931850060 10.5313454634725865 10.5505538306367566
  3.4890648249164267 15.0324118831273434  7.5433077981647383
  6.7400777555442524 16.4494420198095241  0.6489005252030882
  3.1799746628055461 11.9483719741676246  5.3586908956640862
 -1.1934340023308270 10.5569150524164179 11.4136893516742806
  2.3666690679074986 15.0579850381827374  6.7038990536822602
  5.1395699985312744 15.6394490204452694 11.6012655937620632
  3.1803992129950136 11.1383938660620139  6.4925977180003960
  0.4070737655579055 11.3669080433070349  0.4613242860977809
  2.3662445030070600 15.8679631713549583  5.5699922505836943
 -0.0245861922142505 13.3904030193932311  9.4359618074247233
  1.1978200674482260 17.8914665558309025  8.6816355818571047
  5.5712299911677379 13.6159539860867618  2.6266281514531395
  4.3488236299264198  9.1148904656004479  3.3809543638184256
 -0.5078304265310963 12.6082898146053672  8.2231743322694850
  1.6810648247864786 17.1093500734712372  9.8944207301135556
  6.0544742598501573 14.3980671712712702  3.8394156283218788
  3.8655788631269430  9.8970069728057286  2.1681692376811195
  6.2545591906408733  5.8416360073814975 11.2834808594000595
  9.2121493469682889  1.3405809028093214  6.7866257547710251
 13.5855578823119618  3.1604746773329659  0.7316280759268452
 10.6279676910798013  7.6615297770089965  5.2284832179871934
  8.9690933382408495  5.8527870242865125  0.0525433449455333
  8.0976988007042348  1.3517157231678343  5.9312891749178096
 10.8710237130266787  3.1493236475341315 11.9625656197943613
 11.7424182611471206  7.6503949138808789  6.0838197672381860
  8.9695195122452009  6.6678295707046189  1.1884930542414505
  8.0972720612518323  2.1667617079919270  4.7953419301917402
 10.8705975284229055  2.3342811104934507 10.8266159026553535
 11.7428450159181512  6.8353489029051779  7.2197669906952324
  7.8624755977318115  7.4728884163608953  1.4882955838979157
  9.2043155859299848  2.9718219190448756  4.4955416307569074
 11.9776414523056545  1.5292222891904281 10.5268133389577550
 10.6358014840370778  6.0302887088451875  7.5195673064857376
 13.8868144146649026  7.4473188455273682  0.6251600335240876
 10.3267113219261972  2.9462487998854683  5.3349504039850855
  5.9533026567898242  1.5547918781342589 11.3899488599952790
  9.5134057270281485  6.0558618639005806  6.6801585620032595
 12.2863066576519238  6.6373258461631117 11.5775251020830598
 10.3271358721156634  2.1362706917798544  6.4688572263213953
  7.5538104246785567  2.3647848690248785  0.4375837944187803
  9.5129811621277121  6.8658399970728015  5.5462517589046936
  7.1221504669063993  4.3882798451110752  9.4122213157457217
  8.3445567265688769  8.8893433815487484  8.6578950901781031
 12.7179666502883872  4.6138308118046050  2.6028876597741393
 11.4955602890470701  0.1127672913182913  3.3572138721394249
  6.6389062325895534  3.6061666403232095  8.1994338405904816
  8.8278014839071286  8.1072268991890795  9.8706802384345540
 13.2012109189708085  5.3959439969891108  3.8156751366428785
 11.0123155222475919  0.8948837985235704  2.1444287460021192
  6.2545569076537451 14.8437606404242413 11.2834948769749044
  9.2121470639811598 10.3427055358520654  6.7866397723458700
 13.5855555993248345 12.1625993103757093  0.7316420935016897
 10.6279654080926740 16.6636544100517412  5.2284972355620392
  8.9690910552537222 14.8549116573292572  0.0525573625203779
  8.0976965177171074 10.3538403562105792  5.9313031924926545
 10.8710214300395513 12.1514482805768740 11.9625796373692044
 11.7424159781599933 16.6525195469236245  6.0838337848130299
  8.9695172292580718 15.6699542037473591  1.1885070718162951
  8.0972697782647050 11.1688863410346730  4.7953559477665841
 10.8705952454357764 11.3364057435361971 10.8266299202301983
 11.7428427329310221 15.8374735359479200  7.2197810082700782
  7.8624733147446824 16.4750130494036391  1.4883096014727604
  9.2043133029428557 11.9739465520876198  4.4955556483317523
 11.9776391693185271 10.5313469222331726 10.5268273565325998
 10.6357992010499505 15.0324133418879295  7.5195813240605824
 13.8868121316777753 16.4494434785701102  0.6251740510989322
 10.3267090389390681 11.9483734329282107  5.3349644215599303
  5.9533003738026959 10.5569165111770040 11.3899628775701238
  9.5134034440410193 15.0579864969433235  6.6801725795781044
 12.2863043746647964 15.6394504792058555 11.5775391196579047
 10.3271335891285361 11.1383953248226000  6.4688712438962419
  7.5538081416914284 11.3669095020676210  0.4375978119936249
  9.5129788791405829 15.8679646301155444  5.5462657764795384
  7.1221481839192720 13.3904044781538172  9.4122353333205666
  8.3445544435817478 17.8914680145914922  8.6579091077529480
 12.7179643673012599 13.6159554448473497  2.6029016773489837
 11.4955580060599409  9.1148919243610358  3.3572278897142698
  6.6389039496024269 12.6082912733659533  8.1994478581653247
  8.8277992009199995 17.1093515322318233  9.8706942560093989
 13.2012086359836793 14.3980686300318581  3.8156891542177229
 11.0123132392604646  9.8970084315663147  2.1444427635769636
 -0.1005878366938749  8.6624828040820887  2.8768846969790407
  2.8739095619053510  4.1614207155105145  3.1544089080637683
  5.6472361068987524  0.3396249606175211  9.1856771741102126
  2.6727387740472879  4.8406870063300405  8.9081530050558548
  1.0803915189662372  5.2352768848134748 11.9483906043150405
  0.0928483823055340  0.7342229317282047  6.1691675457113018
  4.4662567716481112  3.7668308528265366  0.1141713322490437
  5.4537999343850840  8.2678847754452267  5.8933943360541399
  2.6800493862151966  6.6545690403119258  1.8753155477412309
  0.0932733138136330  2.1535028185799328  4.1559725079090635
  2.8665988862682328  2.3475387133764762 10.1872463776237883
  5.4533750347650729  6.8486048341082997  7.9065893320841978
  5.8781328129916952  8.0634146092566912  0.8714117773686839
  4.0419238660365098  3.5623455909976256  5.1361533044555099
 -0.3314844831686006  0.9386932248294277 11.1911500331428382
  1.5047244256884276  5.4397621604037569  6.9264086096346755
  4.2678731734235766  6.6172711832759052 10.9563591144949228
  4.0521007537280163  2.1162144262800031  7.1374759136798920
  1.2787751749633203  2.3848366343254708  1.1062027042370353
  1.4945475145021021  6.8858933725933769  4.9250860373045526
  5.2132805641601880  4.9842710802460717  9.7164713770199018
  3.1066942104628361  0.4832103246043578  8.3773590091712027
  0.3333677892910089  4.0178366610942051  2.3460904933778313
  2.4399540398336255  8.5188974946595319  3.6852029637807284
  0.0679277835940924  3.9010764408267620  7.3429282873811559
  1.1053108377918777  8.4021335688394867 10.7746395643191253
  5.4787207038787740  5.1010311921610594  4.7196336682361917
  4.4413372013642904  0.5999740059625157  1.2879222965796147
 -0.3147773658029532  2.5434127012174890  8.3866049888415031
  1.4880172283271011  7.0444732895512407  9.7309588080995724
  5.8614256752163083  6.4586950118816340  3.6759569982422367
  4.0586313028907401  1.9576344525989688  2.3316030176443423
  5.5767466211969312  3.7440896768990224  7.9982718810398490
  2.7432265868024910  8.2451487491683420 10.0955691846841873
 -0.0300981984486588  5.2580181063296845  4.0642899590589252
  2.8034216036013979  0.7569592617014774  1.9669929244927256
 -0.1005901196810031 17.6646074371248361  2.8768987145538851
  2.8739072789182227 13.1635453485532601  3.1544229256386123
  5.6472338239116233  9.3417495936602659  9.1856911916850574
  2.6727364910601596 13.8428116393727834  8.9081670226306997
  1.0803892359791090 14.2374015178562221 11.9484046218898854
  0.0928460993184057  9.7363475647709468  6.1691815632861466
  4.4662544886609830 12.7689554858692826  0.1141853498238883
  5.4537976513979558 17.2700094084879723  5.8934083536289847
  2.6800471032280684 15.6566936733546740  1.8753295653160758
  0.0932710308265048 11.1556274516226797  4.1559865254839083
  2.8665966032811054 11.3496633464192218 10.1872603951986331
  5.4533727517779447 15.8507294671510461  7.9066033496590435
  5.8781305300045670 17.0655392422994332  0.8714257949435287
  4.0419215830493815 12.5644702240403721  5.1361673220303548
 -0.3314867661557288  9.9408178578721742 11.1911640507176831
  1.5047221427012993 14.4418867934464998  6.9264226272095195
  4.2678708904364484 15.6193958163186473 10.9563731320697677
  4.0520984707408880 11.1183390593227482  7.1374899312547377
  1.2787728919761920 11.3869612673682141  1.1062167218118799
  1.4945452315149736 15.8880180056361215  4.9251000548793993
  5.2132782811730616 13.9863957132888128  9.7164853945947485
  3.1066919274757074  9.4853349576471011  8.3773730267460493
  0.3333655063038808 13.0199612941369480  2.3461045109526757
  2.4399517568464972 17.5210221277022775  3.6852169813555724
  0.0679255006069641 12.9032010738695053  7.3429423049559999
  1.1053085548047499 17.4042582018822323 10.7746535818939737
  5.4787184208916457 14.1031558252038032  4.7196476858110366
  4.4413349183771631  9.6020986390052592  1.2879363141544591
 -0.3147796487900814 11.5455373342602332  8.3866190064163479
  1.4880149453399731 16.0465979225939854  9.7309728256744208
  5.8614233922291801 15.4608196449243813  3.6759710158170806
  4.0586290199036119 10.9597590856417124  2.3316170352191872
  5.5767443382098030 12.7462143099417684  7.9982858986146939
  2.7432243038153636 17.2472733822110840 10.0955832022590322
 -0.0301004814357870 14.2601427393724300  4.0643039766337710
  2.8034193206142697  9.7590838947442222  1.9670069420675702
  7.0461465394396479  8.6624842628426748  2.8531582228748853
 10.0206439380388730  4.1614221742711015  3.1306824339596124
 12.7939704830322754  0.3396264193781077  9.1619507000060540
  9.8194731501808104  4.8406884650906274  8.8844265309516981
  8.2271258950997606  5.2352783435740626 11.9246641302108838
  7.2395827584390560  0.7342243904887914  6.1454410716071459
 11.6129911477816314  3.7668323115871232  0.0904448581448877
 12.6005343105186061  8.2678862342058128  5.8696678619499840
  9.8267837623487182  6.6545704990725136  1.8515890736370748
  7.2400076899471548  2.1535042773405197  4.1322460338049076
 10.0133332624017566  2.3475401721370628 10.1635199035196315
 12.6001094108985932  6.8486062928688867  7.8828628579800428
 13.0248671891252172  8.0634160680172755  0.8476853032645281
 11.1886582421700318  3.5623470497582121  5.1124268303513540
  6.8152498929649239  0.9386946835900142 11.1674235590386814
  8.6514588018219509  5.4397636191643430  6.9026821355305188
 11.4146075495571004  6.6172726420364922 10.9326326403907661
 11.1988351298615392  2.1162158850405892  7.1137494395757370
  8.4255095510968427  2.3848380930860573  1.0824762301328794
  8.6412818906356268  6.8858948313539630  4.9013595632003986
 12.3600149402937092  4.9842725390066587  9.6927449029157469
 10.2534285865963586  0.4832117833649444  8.3536325350670477
  7.4801021654245305  4.0178381198547930  2.3223640192736754
  9.5866884159671475  8.5188989534201180  3.6614764896765726
  7.2146621597276148  3.9010778995873481  7.3192018132770000
  8.2520452139253990  8.4021350276000728 10.7509130902149703
 12.6254550800122978  5.1010326509216473  4.6959071941320358
 11.5880715774978125  0.5999754647231023  1.2641958224754581
  6.8319570103305693  2.5434141599780755  8.3628785147373463
  8.6347516044606234  7.0444747483118277  9.7072323339954174
 13.0081600513498312  6.4586964706422219  3.6522305241380808
 11.2053656790242613  1.9576359113595556  2.3078765435401869
 12.7234809973304515  3.7440911356596089  7.9745454069356931
  9.8899609629360139  8.2451502079289298 10.0718427105800306
  7.1166361776848639  5.2580195650902724  4.0405634849547711
  9.9501559797349195  0.7569607204620640  1.9432664503885693
  7.0461442564525196 17.6646088958854222  2.8531722404497293
 10.0206416550517439 13.1635468073138444  3.1306964515344569
 12.7939682000451480  9.3417510524208520  9.1619647175808989
  9.8194708671936812 13.8428130981333695  8.8844405485265430
  8.2271236121126314 14.2374029766168082 11.9246781477857287
  7.2395804754519286  9.7363490235315346  6.1454550891819917
 11.6129888647945041 12.7689569446298687  0.0904588757197323
 12.6005320275314769 17.2700108672485548  5.8696818795248289
  9.8267814793615891 15.6566951321152583  1.8516030912119195
  7.2400054069600266 11.1556289103832658  4.1322600513797525
 10.0133309794146292 11.3496648051798097 10.1635339210944764
 12.6001071279114694 15.8507309259116322  7.8828768755548877
 13.0248649061380881 17.0655407010600193  0.8476993208393725
 11.1886559591829027 12.5644716828009564  5.1124408479261989
  6.8152476099777948  9.9408193166327603 11.1674375766135263
  8.6514565188348236 14.4418882522070877  6.9026961531053654
 11.4146052665699731 15.6193972750792351 10.9326466579656110
 11.1988328468744101 11.1183405180833326  7.1137634571505819
  8.4255072681097136 11.3869627261288002  1.0824902477077241
  8.6412796076484959 15.8880194643967076  4.9013735807752425
 12.3600126573065818 13.9863971720494007  9.6927589204905917
 10.2534263036092295  9.4853364164076854  8.3536465526418926
  7.4800998824374023 13.0199627528975341  2.3223780368485198
  9.5866861329800201 17.5210235864628601  3.6614905072514170
  7.2146598767404857 12.9032025326300914  7.3192158308518440
  8.2520429309382717 17.4042596606428148 10.7509271077898152
 12.6254527970251704 14.1031572839643893  4.6959212117068807
 11.5880692945106851  9.6021000977658453  1.2642098400503028
  6.8319547273434411 11.5455387930208193  8.3628925323121912
  8.6347493214734943 16.0465993813545715  9.7072463515702605
 13.0081577683627039 15.4608211036849656  3.6522445417129257
 11.2053633960371339 10.9597605444022985  2.3078905611150309
 12.7234787143433241 12.7462157687023545  7.9745594245105380
  9.8899586799488848 17.2472748409716701 10.0718567281548754
  7.1166338946977357 14.2601441981330179  4.0405775025296151
  9.9501536967477922  9.7590853535048083  1.9432804679634141
 -0.9958219467150052  5.0357815173580445 10.1357689373098072
  2.1690622760966738  0.5347229475937960  7.9817881872533363
  6.5424702930460095  3.9663262347320254  1.9267929505137227
  3.3775859862086071  8.4673848467724078  4.0807737560091724
 -0.9958242297021335 14.0379061504007900 10.1357829548846521
  2.1690599931095456  9.5368475806365396  7.9818022048281803
  6.5424680100588812 12.9684508677747701  1.9268069680885676
  3.3775837032214788 17.4695094798151551  4.0807877735840163
  6.1509124294185167  5.0357829761186315 10.1120424632056505
  9.3157966522301976  0.5347244063543826  7.9580617131491795
 13.6892046691795315  3.9663276934926119  1.9030664764095666
 10.5243203623421291  8.4673863055329939  4.0570472819050156
  6.1509101464313884 14.0379076091613761 10.1120564807804953
  9.3157943692430667  9.5368490393971275  7.9580757307240244
 13.6892023861924024 12.9684523265353580  1.9030804939844113
 10.5243180793550000 17.4695109385757412  4.0570612994798605
  0.7810951282544265  8.2759109935297097  2.6416342273534950
  1.9922267632524275  3.7748479270987301  3.3896584041773941
  4.7655531534526494  0.7261967991723334  9.4209276398754938
  3.5544215735980647  5.2272597681565802  8.6729034670420653
  1.1874400881784628  4.4133031607771676  9.7518644745801311
 -0.0142016904219589  8.9143670041280565  8.3657050798076700
  4.3592082684514821  4.5888045834624327  2.3106974830349203
  5.5608499632240758  0.0877406911075650  3.6968567895983799
  0.7810928452672983 17.2780356265724535  2.6416482449283394
  1.9922244802652993 12.7769725601414734  3.3896724217522376
  4.7655508704655212  9.7283214322150773  9.4209416574503386
  3.5544192906109364 14.2293844011993222  8.6729174846169101
  1.1874378051913346 13.4154277938199105  9.7518784921549742
 -0.0142039734090872 17.9164916371708003  8.3657190973825148
  4.3592059854643539 13.5909292165051792  2.3107115006097647
  5.5608476802369475  9.0898653241503098  3.6968708071732239
  7.9278295043879483  8.2759124522902976  2.6179077532493391
  9.1389611393859500  3.7748493858593166  3.3659319300732378
 11.9122875295861714  0.7261982579329198  9.3972011657713388
 10.7011559497315858  5.2272612269171672  8.6491769929379085
  8.3341744643119853  4.4133046195377537  9.7281380004759708
  7.1325326857115634  8.9143684628886426  8.3419786057035132
 11.5059426445850050  4.5888060422230206  2.2869710089307644
 12.7075843393576005  0.0877421498681516  3.6731303154942241
  7.9278272214008192 17.2780370853330396  2.6179217708241835
  9.1389588563988209 12.7769740189020613  3.3659459476480817
 11.9122852465990441  9.7283228909756634  9.3972151833461837
 10.7011536667444567 14.2293858599599101  8.6491910105127534
  8.3341721813248562 13.4154292525804966  9.7281520180508156
  7.1325304027244343 17.9164930959313864  8.3419926232783581
 11.5059403615978759 13.5909306752657653  2.2869850265056089
 12.7075820563704713  9.0898667829108941  3.6731443330690685
