 C  H  N 
        1.0000000000
  16.570334064611629  -0.000005969140347   0.000000665251185
  -0.000004560731616  12.728680179148455  -0.000000415303230
   0.000000787044605  -0.000000644524429  20.728679379217134
  144  192   96
 Direct
   0.145444159829709   0.056652411875042   0.130419567414130
   0.645444159829709   0.056652411875042   0.130419567414130
   0.145444159829709   0.056652411875042   0.463752900747464
   0.645444159829709   0.056652411875042   0.463752900747464
   0.145444159829709   0.056652411875042   0.797086234080797
   0.645444159829709   0.056652411875042   0.797086234080797
   0.395444249627448   0.943348235228296   0.202912619144776
   0.895444249627448   0.943348235228296   0.202912619144776
   0.395444249627448   0.943348235228296   0.536245952478109
   0.895444249627448   0.943348235228296   0.536245952478109
   0.395444249627448   0.943348235228296   0.869579285811443
   0.895444249627448   0.943348235228296   0.869579285811443
   0.145444239760944   0.443348236940014   0.297086248058695
   0.645444239760944   0.443348236940014   0.297086248058695
   0.145444239760944   0.443348236940014   0.630419581392028
   0.645444239760944   0.443348236940014   0.630419581392028
   0.145444239760944   0.443348236940014   0.963752914725362
   0.645444239760944   0.443348236940014   0.963752914725362
   0.395444172345405   0.556652431532299   0.036245965473011
   0.895444172345405   0.556652431532299   0.036245965473011
   0.395444172345405   0.556652431532299   0.369579298806344
   0.895444172345405   0.556652431532299   0.369579298806344
   0.395444172345405   0.556652431532299   0.702912632139677
   0.895444172345405   0.556652431532299   0.702912632139677
   0.196104478368646   0.118791036152449   0.169689372461174
   0.696104478368646   0.118791036152449   0.169689372461174
   0.196104478368646   0.118791036152449   0.503022705794507
   0.696104478368646   0.118791036152449   0.503022705794507
   0.196104478368646   0.118791036152449   0.836356039127841
   0.696104478368646   0.118791036152449   0.836356039127841
   0.446104552574618   0.881209598403144   0.163642861000459
   0.946104552574618   0.881209598403144   0.163642861000459
   0.446104552574618   0.881209598403144   0.496976194333792
   0.946104552574618   0.881209598403144   0.496976194333792
   0.446104552574618   0.881209598403144   0.830309527667126
   0.946104552574618   0.881209598403144   0.830309527667126
   0.196104536751550   0.381209607482262   0.003022675112093
   0.696104536751550   0.381209607482262   0.003022675112093
   0.196104536751550   0.381209607482262   0.336356008445426
   0.696104536751550   0.381209607482262   0.336356008445426
   0.196104536751550   0.381209607482262   0.669689341778760
   0.696104536751550   0.381209607482262   0.669689341778760
   0.446104496790281   0.618791047480066   0.330309494071779
   0.946104496790281   0.618791047480066   0.330309494071779
   0.446104496790281   0.618791047480066   0.663642827405112
   0.946104496790281   0.618791047480066   0.663642827405112
   0.446104496790281   0.618791047480066   0.996976160738445
   0.946104496790281   0.618791047480066   0.996976160738445
   0.147423401507223   0.200442472609453   0.191220817478892
   0.647423401507223   0.200442472609453   0.191220817478892
   0.147423401507223   0.200442472609453   0.524554150812225
   0.647423401507223   0.200442472609453   0.524554150812225
   0.147423401507223   0.200442472609453   0.857887484145558
   0.647423401507223   0.200442472609453   0.857887484145558
   0.397423417091471   0.799558131405720   0.142111421183460
   0.897423417091471   0.799558131405720   0.142111421183460
   0.397423417091471   0.799558131405720   0.475444754516793
   0.897423417091471   0.799558131405720   0.475444754516793
   0.397423417091471   0.799558131405720   0.808778087850126
   0.897423417091471   0.799558131405720   0.808778087850126
   0.147423419269193   0.299558131101772   0.024554122503389
   0.647423419269193   0.299558131101772   0.024554122503389
   0.147423419269193   0.299558131101772   0.357887455836722
   0.647423419269193   0.299558131101772   0.357887455836722
   0.147423419269193   0.299558131101772   0.691220789170055
   0.647423419269193   0.299558131101772   0.691220789170055
   0.397423400620821   0.700442463276047   0.308778064617913
   0.897423400620821   0.700442463276047   0.308778064617913
   0.397423400620821   0.700442463276047   0.642111397951246
   0.897423400620821   0.700442463276047   0.642111397951246
   0.397423400620821   0.700442463276047   0.975444731284579
   0.897423400620821   0.700442463276047   0.975444731284579
   0.357131869188739   0.182718438874088   0.307680432532984
   0.857131869188739   0.182718438874088   0.307680432532984
   0.357131869188739   0.182718438874088   0.641013765866317
   0.857131869188739   0.182718438874088   0.641013765866317
   0.357131869188739   0.182718438874088   0.974347099199651
   0.857131869188739   0.182718438874088   0.974347099199651
   0.107131916889179   0.817282035075921   0.025651826933472
   0.607131916889179   0.817282035075921   0.025651826933472
   0.107131916889179   0.817282035075921   0.358985160266805
   0.607131916889179   0.817282035075921   0.358985160266805
   0.107131916889179   0.817282035075921   0.692318493600138
   0.607131916889179   0.817282035075921   0.692318493600138
   0.357131928533103   0.317282041378643   0.141013720186700
   0.857131928533103   0.317282041378643   0.141013720186700
   0.357131928533103   0.317282041378643   0.474347053520033
   0.857131928533103   0.317282041378643   0.474347053520033
   0.357131928533103   0.317282041378643   0.807680386853367
   0.857131928533103   0.317282041378643   0.807680386853367
   0.107131858601925   0.682718445991544   0.192318451554638
   0.607131858601925   0.682718445991544   0.192318451554638
   0.107131858601925   0.682718445991544   0.525651784887971
   0.607131858601925   0.682718445991544   0.525651784887971
   0.107131858601925   0.682718445991544   0.858985118221305
   0.607131858601925   0.682718445991544   0.858985118221305
   0.303653398599947   0.106777376902090   0.332728920066145
   0.803653398599947   0.106777376902090   0.332728920066145
   0.303653398599947   0.106777376902090   0.666062253399478
   0.803653398599947   0.106777376902090   0.666062253399478
   0.303653398599947   0.106777376902090   0.999395586732811
   0.803653398599947   0.106777376902090   0.999395586732811
   0.053653486951015   0.893223064853025   0.000603357930282
   0.553653486951015   0.893223064853025   0.000603357930282
   0.053653486951015   0.893223064853025   0.333936691263615
   0.553653486951015   0.893223064853025   0.333936691263615
   0.053653486951015   0.893223064853025   0.667270024596948
   0.553653486951015   0.893223064853025   0.667270024596948
   0.303653503420904   0.393223084374661   0.166062187211264
   0.803653503420904   0.393223084374661   0.166062187211264
   0.303653503420904   0.393223084374661   0.499395520544598
   0.803653503420904   0.393223084374661   0.499395520544598
   0.303653503420904   0.393223084374661   0.832728853877931
   0.803653503420904   0.393223084374661   0.832728853877931
   0.053653385735385   0.606777383781281   0.167269961447087
   0.553653385735385   0.606777383781281   0.167269961447087
   0.053653385735385   0.606777383781281   0.500603294780420
   0.553653385735385   0.606777383781281   0.500603294780420
   0.053653385735385   0.606777383781281   0.833936628113753
   0.553653385735385   0.606777383781281   0.833936628113753
   0.348036138770997   0.052572381935686   0.045466795632483
   0.848036138770997   0.052572381935686   0.045466795632483
   0.348036138770997   0.052572381935686   0.378800128965816
   0.848036138770997   0.052572381935686   0.378800128965816
   0.348036138770997   0.052572381935686   0.712133462299149
   0.848036138770997   0.052572381935686   0.712133462299149
   0.098036242588351   0.947428035655152   0.287865438061760
   0.598036242588351   0.947428035655152   0.287865438061760
   0.098036242588351   0.947428035655152   0.621198771395093
   0.598036242588351   0.947428035655152   0.621198771395093
   0.098036242588351   0.947428035655152   0.954532104728427
   0.598036242588351   0.947428035655152   0.954532104728427
   0.348036239675004   0.447428059914532   0.212133449173102
   0.848036239675004   0.447428059914532   0.212133449173102
   0.348036239675004   0.447428059914532   0.545466782506435
   0.848036239675004   0.447428059914532   0.545466782506435
   0.348036239675004   0.447428059914532   0.878800115839769
   0.848036239675004   0.447428059914532   0.878800115839769
   0.098036136797555   0.552572390736253   0.121198751244689
   0.598036136797555   0.552572390736253   0.121198751244689
   0.098036136797555   0.552572390736253   0.454532084578022
   0.598036136797555   0.552572390736253   0.454532084578022
   0.098036136797555   0.552572390736253   0.787865417911355
   0.598036136797555   0.552572390736253   0.787865417911355
   0.022686177776148   0.232705083193010   0.168865794079193
   0.522686177776148   0.232705083193010   0.168865794079193
   0.022686177776148   0.232705083193010   0.502199127412526
   0.522686177776148   0.232705083193010   0.502199127412526
   0.022686177776148   0.232705083193010   0.835532460745859
   0.522686177776148   0.232705083193010   0.835532460745859
   0.272686153427885   0.767295452820668   0.164466415586853
   0.772686153427885   0.767295452820668   0.164466415586853
   0.272686153427885   0.767295452820668   0.497799748920186
   0.772686153427885   0.767295452820668   0.497799748920186
   0.272686153427885   0.767295452820668   0.831133082253520
   0.772686153427885   0.767295452820668   0.831133082253520
   0.022686160588607   0.267295467816338   0.002199137155438
   0.522686160588607   0.267295467816338   0.002199137155438
   0.022686160588607   0.267295467816338   0.335532470488771
   0.522686160588607   0.267295467816338   0.335532470488771
   0.022686160588607   0.267295467816338   0.668865803822105
   0.522686160588607   0.267295467816338   0.668865803822105
   0.272686160986736   0.732705087897607   0.331133093156384
   0.772686160986736   0.732705087897607   0.331133093156384
   0.272686160986736   0.732705087897607   0.664466426489717
   0.772686160986736   0.732705087897607   0.664466426489717
   0.272686160986736   0.732705087897607   0.997799759823050
   0.772686160986736   0.732705087897607   0.997799759823050
   0.160307996024635   0.266996076122774   0.221544844638003
   0.660307996024635   0.266996076122774   0.221544844638003
   0.160307996024635   0.266996076122774   0.554878177971337
   0.660307996024635   0.266996076122774   0.554878177971337
   0.160307996024635   0.266996076122774   0.888211511304670
   0.660307996024635   0.266996076122774   0.888211511304670
   0.410307985486727   0.733004515611370   0.111787422557701
   0.910307985486728   0.733004515611370   0.111787422557701
   0.410307985486727   0.733004515611370   0.445120755891034
   0.910307985486728   0.733004515611370   0.445120755891034
   0.410307985486727   0.733004515611370   0.778454089224367
   0.910307985486728   0.733004515611370   0.778454089224367
   0.160307981747346   0.233004511309915   0.054878124696081
   0.660307981747346   0.233004511309915   0.054878124696081
   0.160307981747346   0.233004511309915   0.388211458029415
   0.660307981747346   0.233004511309915   0.388211458029415
   0.160307981747346   0.233004511309915   0.721544791362748
   0.660307981747346   0.233004511309915   0.721544791362748
   0.410307988432790   0.766996054742138   0.278454042469399
   0.910307988432790   0.766996054742138   0.278454042469399
   0.410307988432790   0.766996054742138   0.611787375802732
   0.910307988432790   0.766996054742138   0.611787375802732
   0.410307988432790   0.766996054742138   0.945120709136066
   0.910307988432790   0.766996054742138   0.945120709136066
   0.258791298916999   0.105845682496665   0.180633797660475
   0.758791298916999   0.105845682496665   0.180633797660475
   0.258791298916999   0.105845682496665   0.513967130993809
   0.758791298916999   0.105845682496665   0.513967130993809
   0.258791298916999   0.105845682496665   0.847300464327142
   0.758791298916999   0.105845682496665   0.847300464327142
   0.008791393723482   0.894154972771815   0.152698455842462
   0.508791393723482   0.894154972771815   0.152698455842462
   0.008791393723482   0.894154972771815   0.486031789175796
   0.508791393723482   0.894154972771815   0.486031789175796
   0.008791393723482   0.894154972771815   0.819365122509129
   0.508791393723482   0.894154972771815   0.819365122509129
   0.258791371183225   0.394154976241987   0.013967070857639
   0.758791371183225   0.394154976241987   0.013967070857639
   0.258791371183225   0.394154976241987   0.347300404190973
   0.758791371183225   0.394154976241987   0.347300404190973
   0.258791371183225   0.394154976241987   0.680633737524306
   0.758791371183225   0.394154976241987   0.680633737524306
   0.008791325354883   0.605845700630676   0.319365065886611
   0.508791325354883   0.605845700630676   0.319365065886611
   0.008791325354883   0.605845700630676   0.652698399219945
   0.508791325354883   0.605845700630676   0.652698399219945
   0.008791325354883   0.605845700630676   0.986031732553278
   0.508791325354883   0.605845700630676   0.986031732553278
   0.159639408592567   0.985414447420842   0.104496628465628
   0.659639408592567   0.985414447420842   0.104496628465628
   0.159639408592567   0.985414447420842   0.437829961798961
   0.659639408592567   0.985414447420842   0.437829961798961
   0.159639408592567   0.985414447420842   0.771163295132294
   0.659639408592567   0.985414447420842   0.771163295132294
   0.409639532194544   0.014586231183858   0.228835542322524
   0.909639532194544   0.014586231183858   0.228835542322524
   0.409639532194544   0.014586231183858   0.562168875655857
   0.909639532194544   0.014586231183858   0.562168875655857
   0.409639532194544   0.014586231183858   0.895502208989191
   0.909639532194544   0.014586231183858   0.895502208989191
   0.159639528131577   0.514586231976119   0.271163328533626
   0.659639528131577   0.514586231976119   0.271163328533626
   0.159639528131577   0.514586231976119   0.604496661866959
   0.659639528131577   0.514586231976119   0.604496661866959
   0.159639528131577   0.514586231976119   0.937829995200292
   0.659639528131577   0.514586231976119   0.937829995200292
   0.409639418150948   0.485414474333021   0.062168898353443
   0.909639418150948   0.485414474333021   0.062168898353443
   0.409639418150948   0.485414474333021   0.395502231686776
   0.909639418150948   0.485414474333021   0.395502231686776
   0.409639418150948   0.485414474333021   0.728835565020110
   0.909639418150948   0.485414474333021   0.728835565020110
   0.471492914724541   0.080295956399394   0.075945220499876
   0.971492914724541   0.080295956399394   0.075945220499876
   0.471492914724541   0.080295956399394   0.409278553833209
   0.971492914724541   0.080295956399394   0.409278553833209
   0.471492914724541   0.080295956399394   0.742611887166542
   0.971492914724541   0.080295956399394   0.742611887166542
   0.221492980417946   0.919704522166334   0.257386949403815
   0.721492980417946   0.919704522166334   0.257386949403815
   0.221492980417946   0.919704522166334   0.590720282737148
   0.721492980417946   0.919704522166334   0.590720282737148
   0.221492980417946   0.919704522166334   0.924053616070482
   0.721492980417946   0.919704522166334   0.924053616070482
   0.471492963424750   0.419704515756210   0.242611944352983
   0.971492963424750   0.419704515756210   0.242611944352983
   0.471492963424750   0.419704515756210   0.575945277686317
   0.971492963424750   0.419704515756210   0.575945277686317
   0.471492963424750   0.419704515756210   0.909278611019650
   0.971492963424750   0.419704515756210   0.909278611019650
   0.221492926882424   0.580295947538296   0.090720324206114
   0.721492926882424   0.580295947538296   0.090720324206114
   0.221492926882424   0.580295947538296   0.424053657539447
   0.721492926882424   0.580295947538296   0.424053657539447
   0.221492926882424   0.580295947538296   0.757386990872781
   0.721492926882424   0.580295947538296   0.757386990872781
   0.332235050644436   0.987986326850203   0.076568338588305
   0.832235050644436   0.987986326850203   0.076568338588305
   0.332235050644436   0.987986326850203   0.409901671921639
   0.832235050644436   0.987986326850203   0.409901671921639
   0.332235050644436   0.987986326850203   0.743235005254972
   0.832235050644436   0.987986326850203   0.743235005254972
   0.082235186405807   0.012014063173038   0.256763890110848
   0.582235186405807   0.012014063173038   0.256763890110848
   0.082235186405807   0.012014063173038   0.590097223444182
   0.582235186405807   0.012014063173038   0.590097223444182
   0.082235186405807   0.012014063173038   0.923430556777515
   0.582235186405807   0.012014063173038   0.923430556777515
   0.332235183359692   0.512014100505399   0.243234997427778
   0.832235183359692   0.512014100505399   0.243234997427778
   0.332235183359692   0.512014100505399   0.576568330761111
   0.832235183359692   0.512014100505399   0.576568330761111
   0.332235183359692   0.512014100505399   0.909901664094445
   0.832235183359692   0.512014100505399   0.909901664094445
   0.082235052872521   0.487986341891122   0.090097204882497
   0.582235052872521   0.487986341891122   0.090097204882497
   0.082235052872521   0.487986341891122   0.423430538215831
   0.582235052872521   0.487986341891122   0.423430538215831
   0.082235052872521   0.487986341891122   0.756763871549164
   0.582235052872521   0.487986341891122   0.756763871549164
   0.241830140375276   0.093250772920848   0.319251685790185
   0.741830140375276   0.093250772920848   0.319251685790185
   0.241830140375276   0.093250772920848   0.652585019123518
   0.741830140375276   0.093250772920848   0.652585019123518
   0.241830140375276   0.093250772920848   0.985918352456851
   0.741830140375276   0.093250772920848   0.985918352456851
   0.491830248666171   0.906749669180095   0.014080638636251
   0.991830248666171   0.906749669180095   0.014080638636251
   0.491830248666171   0.906749669180095   0.347413971969584
   0.991830248666171   0.906749669180095   0.347413971969584
   0.491830248666171   0.906749669180095   0.680747305302918
   0.991830248666171   0.906749669180095   0.680747305302918
   0.241830274600439   0.406749705939069   0.152584901030298
   0.741830274600439   0.406749705939069   0.152584901030298
   0.241830274600439   0.406749705939069   0.485918234363631
   0.741830274600439   0.406749705939069   0.485918234363631
   0.241830274600439   0.406749705939069   0.819251567696964
   0.741830274600439   0.406749705939069   0.819251567696964
   0.491830115837206   0.593250787530348   0.180747195874524
   0.991830115837206   0.593250787530348   0.180747195874524
   0.491830115837206   0.593250787530348   0.514080529207857
   0.991830115837206   0.593250787530348   0.514080529207857
   0.491830115837206   0.593250787530348   0.847413862541190
   0.991830115837206   0.593250787530348   0.847413862541190
   0.346224632978956   0.240814441184514   0.270871841770594
   0.846224632978956   0.240814441184514   0.270871841770594
   0.346224632978956   0.240814441184514   0.604205175103927
   0.846224632978956   0.240814441184514   0.604205175103927
   0.346224632978956   0.240814441184514   0.937538508437261
   0.846224632978956   0.240814441184514   0.937538508437261
   0.096224654438388   0.759186051789862   0.062460436311586
   0.596224654438388   0.759186051789862   0.062460436311586
   0.096224654438388   0.759186051789862   0.395793769644919
   0.596224654438388   0.759186051789862   0.395793769644919
   0.096224654438388   0.759186051789862   0.729127102978252
   0.596224654438388   0.759186051789862   0.729127102978252
   0.346224670055698   0.259186059292212   0.104205108862522
   0.846224670055698   0.259186059292212   0.104205108862522
   0.346224670055698   0.259186059292212   0.437538442195856
   0.846224670055698   0.259186059292212   0.437538442195856
   0.346224670055698   0.259186059292212   0.770871775529189
   0.846224670055698   0.259186059292212   0.770871775529189
   0.096224616064911   0.740814448962102   0.229127045283419
   0.596224616064911   0.740814448962102   0.229127045283419
   0.096224616064911   0.740814448962102   0.562460378616752
   0.596224616064911   0.740814448962102   0.562460378616752
   0.096224616064911   0.740814448962102   0.895793711950085
   0.596224616064911   0.740814448962102   0.895793711950085
   0.072823616822489   0.184820520787136   0.165599992625383
   0.572823616822489   0.184820520787136   0.165599992625383
   0.072823616822489   0.184820520787136   0.498933325958717
   0.572823616822489   0.184820520787136   0.498933325958717
   0.072823616822489   0.184820520787136   0.832266659292050
   0.572823616822489   0.184820520787136   0.832266659292050
   0.322823622275988   0.815180065424300   0.167732202887447
   0.822823622275988   0.815180065424300   0.167732202887447
   0.322823622275988   0.815180065424300   0.501065536220780
   0.822823622275988   0.815180065424300   0.501065536220780
   0.322823622275988   0.815180065424300   0.834398869554114
   0.822823622275988   0.815180065424300   0.834398869554114
   0.072823623484657   0.315180078929984   0.332266677425908
   0.572823623484657   0.315180078929984   0.332266677425908
   0.072823623484657   0.315180078929984   0.665600010759241
   0.572823623484657   0.315180078929984   0.665600010759241
   0.072823623484657   0.315180078929984   0.998933344092575
   0.572823623484657   0.315180078929984   0.998933344092575
   0.322823606844788   0.684820516707423   0.001065556001451
   0.822823606844788   0.684820516707423   0.001065556001451
   0.322823606844788   0.684820516707423   0.334398889334784
   0.822823606844788   0.684820516707423   0.334398889334784
   0.322823606844788   0.684820516707423   0.667732222668117
   0.822823606844788   0.684820516707423   0.667732222668117
   0.070216692302000   0.096803135131083   0.127477132184372
   0.570216692302000   0.096803135131083   0.127477132184372
   0.070216692302000   0.096803135131083   0.460810465517706
   0.570216692302000   0.096803135131083   0.460810465517706
   0.070216692302000   0.096803135131083   0.794143798851039
   0.570216692302000   0.096803135131083   0.794143798851039
   0.320216744530575   0.903197483197747   0.205855036057804
   0.820216744530575   0.903197483197747   0.205855036057804
   0.320216744530575   0.903197483197747   0.539188369391137
   0.820216744530575   0.903197483197747   0.539188369391137
   0.320216744530575   0.903197483197747   0.872521702724471
   0.820216744530575   0.903197483197747   0.872521702724471
   0.070216735325566   0.403197483112632   0.294143848049063
   0.570216735325566   0.403197483112632   0.294143848049063
   0.070216735325566   0.403197483112632   0.627477181382396
   0.570216735325566   0.403197483112632   0.627477181382396
   0.070216735325566   0.403197483112632   0.960810514715730
   0.570216735325566   0.403197483112632   0.960810514715730
   0.320216698893564   0.596803134254514   0.039188409458239
   0.820216698893564   0.596803134254514   0.039188409458239
   0.320216698893564   0.596803134254514   0.372521742791573
   0.820216698893564   0.596803134254514   0.372521742791573
   0.320216698893564   0.596803134254514   0.705855076124906
   0.820216698893564   0.596803134254514   0.705855076124906
   0.423061398658899   0.096154136439778   0.046389725767931
   0.923061398658899   0.096154136439778   0.046389725767931
   0.423061398658899   0.096154136439778   0.379723059101264
   0.923061398658899   0.096154136439778   0.379723059101264
   0.423061398658899   0.096154136439778   0.713056392434598
   0.923061398658899   0.096154136439778   0.713056392434598
   0.173061460547570   0.903846295409917   0.286942460869119
   0.673061460547570   0.903846295409917   0.286942460869119
   0.173061460547570   0.903846295409917   0.620275794202453
   0.673061460547570   0.903846295409917   0.620275794202453
   0.173061460547570   0.903846295409917   0.953609127535786
   0.673061460547570   0.903846295409917   0.953609127535786
   0.423061447659535   0.403846296559391   0.213056433196267
   0.923061447659535   0.403846296559391   0.213056433196267
   0.423061447659535   0.403846296559391   0.546389766529600
   0.923061447659535   0.403846296559391   0.546389766529600
   0.423061447659535   0.403846296559391   0.879723099862933
   0.923061447659535   0.403846296559391   0.879723099862933
   0.173061401051057   0.596154133846648   0.120275823710247
   0.673061401051057   0.596154133846648   0.120275823710247
   0.173061401051057   0.596154133846648   0.453609157043580
   0.673061401051057   0.596154133846648   0.453609157043580
   0.173061401051057   0.596154133846648   0.786942490376914
   0.673061401051057   0.596154133846648   0.786942490376914
   0.430028564421271   0.176693765448170   0.002893811761549
   0.930028564421271   0.176693765448170   0.002893811761549
   0.430028564421271   0.176693765448170   0.336227145094883
   0.930028564421271   0.176693765448170   0.336227145094883
   0.430028564421271   0.176693765448170   0.669560478428216
   0.930028564421271   0.176693765448170   0.669560478428216
   0.180028588908602   0.823306704649220   0.330438391895942
   0.680028588908602   0.823306704649220   0.330438391895942
   0.180028588908602   0.823306704649220   0.663771725229275
   0.680028588908602   0.823306704649220   0.663771725229275
   0.180028588908602   0.823306704649220   0.997105058562608
   0.680028588908602   0.823306704649220   0.997105058562608
   0.430028589163320   0.323306688357457   0.169560499151990
   0.930028589163320   0.323306688357457   0.169560499151990
   0.430028589163320   0.323306688357457   0.502893832485323
   0.930028589163320   0.323306688357457   0.502893832485323
   0.430028589163320   0.323306688357457   0.836227165818657
   0.930028589163320   0.323306688357457   0.836227165818657
   0.180028560974360   0.676693765050035   0.163771745329103
   0.680028560974360   0.676693765050035   0.163771745329103
   0.180028560974360   0.676693765050035   0.497105078662437
   0.680028560974360   0.676693765050035   0.497105078662437
   0.180028560974360   0.676693765050035   0.830438411995770
   0.680028560974360   0.676693765050035   0.830438411995770
