 C  H  O 
        1.0000000000
  11.185602432536049   0.000000410289264  -0.135056176764917
   0.000000316963745  17.365745822584277   0.000001328542217
  -0.418095264118342   0.000000979974088  10.196056519229201
   64   96   64
 Direct
   0.041326992981347   0.465988545097213   0.487078506876312
   0.541326992981347   0.465988545097213   0.487078506876312
   0.041326992981347   0.965988545097213   0.487078506876312
   0.541326992981347   0.965988545097213   0.487078506876312
   0.041326992981347   0.465988545097213   0.987078506876311
   0.541326992981347   0.465988545097213   0.987078506876311
   0.041326992981347   0.965988545097213   0.987078506876311
   0.541326992981347   0.965988545097213   0.987078506876311
   0.458677048051366   0.034007772226470   0.012924932152464
   0.958677048051366   0.034007772226470   0.012924932152464
   0.458677048051366   0.534007772226470   0.012924932152464
   0.958677048051366   0.534007772226470   0.012924932152464
   0.458677048051366   0.034007772226470   0.512924932152464
   0.958677048051366   0.034007772226470   0.512924932152464
   0.458677048051366   0.534007772226470   0.512924932152464
   0.958677048051366   0.534007772226470   0.512924932152464
   0.041326961183124   0.284007774917588   0.237078536812760
   0.541326961183124   0.284007774917588   0.237078536812760
   0.041326961183124   0.784007774917588   0.237078536812760
   0.541326961183124   0.784007774917588   0.237078536812760
   0.041326961183124   0.284007774917588   0.737078536812760
   0.541326961183124   0.284007774917588   0.737078536812760
   0.041326961183124   0.784007774917588   0.737078536812760
   0.541326961183124   0.784007774917588   0.737078536812760
   0.458677021464828   0.215988555538808   0.262924993250711
   0.958677021464828   0.215988555538808   0.262924993250711
   0.458677021464828   0.715988555538808   0.262924993250711
   0.958677021464828   0.715988555538808   0.262924993250711
   0.458677021464828   0.215988555538808   0.762924993250711
   0.958677021464828   0.215988555538808   0.762924993250711
   0.458677021464828   0.715988555538808   0.762924993250711
   0.958677021464828   0.715988555538808   0.762924993250711
   0.129353248592110   0.482990376874656   0.383042948750172
   0.629353248592110   0.482990376874656   0.383042948750172
   0.129353248592110   0.982990376874656   0.383042948750172
   0.629353248592110   0.982990376874656   0.383042948750172
   0.129353248592110   0.482990376874656   0.883042948750172
   0.629353248592110   0.482990376874656   0.883042948750172
   0.129353248592110   0.982990376874656   0.883042948750172
   0.629353248592110   0.982990376874656   0.883042948750172
   0.370650798834783   0.017005938721049   0.116960507523231
   0.870650798834783   0.017005938721049   0.116960507523231
   0.370650798834783   0.517005938721049   0.116960507523231
   0.870650798834783   0.517005938721049   0.116960507523231
   0.370650798834783   0.017005938721049   0.616960507523231
   0.870650798834783   0.017005938721049   0.616960507523231
   0.370650798834783   0.517005938721049   0.616960507523231
   0.870650798834783   0.517005938721049   0.616960507523231
   0.129353222410776   0.267005944827956   0.133042991009429
   0.629353222410776   0.267005944827956   0.133042991009429
   0.129353222410776   0.767005944827956   0.133042991009429
   0.629353222410776   0.767005944827956   0.133042991009429
   0.129353222410776   0.267005944827956   0.633042991009429
   0.629353222410776   0.267005944827956   0.633042991009429
   0.129353222410776   0.767005944827956   0.633042991009429
   0.629353222410776   0.767005944827956   0.633042991009429
   0.370650767659557   0.232990381972028   0.366960547448960
   0.870650767659557   0.232990381972028   0.366960547448960
   0.370650767659557   0.732990381972028   0.366960547448960
   0.870650767659557   0.732990381972028   0.366960547448960
   0.370650767659557   0.232990381972028   0.866960547448960
   0.870650767659557   0.232990381972028   0.866960547448960
   0.370650767659557   0.732990381972028   0.866960547448960
   0.870650767659557   0.732990381972028   0.866960547448960
   0.489186062966464   0.415458482627348   0.453927218739633
   0.989186062966464   0.415458482627348   0.453927218739633
   0.489186062966464   0.915458482627348   0.453927218739633
   0.989186062966464   0.915458482627348   0.453927218739633
   0.489186062966464   0.415458482627348   0.953927218739633
   0.989186062966464   0.415458482627348   0.953927218739633
   0.489186062966464   0.915458482627348   0.953927218739633
   0.989186062966464   0.915458482627348   0.953927218739633
   0.010817973627363   0.084537833710033   0.046076224520749
   0.510817973627363   0.084537833710033   0.046076224520749
   0.010817973627363   0.584537833710033   0.046076224520749
   0.510817973627363   0.584537833710033   0.046076224520749
   0.010817973627363   0.084537833710033   0.546076224520749
   0.510817973627363   0.084537833710033   0.546076224520749
   0.010817973627363   0.584537833710033   0.546076224520749
   0.510817973627363   0.584537833710033   0.546076224520749
   0.489186036903449   0.334537836535894   0.203927223423650
   0.989186036903449   0.334537836535894   0.203927223423650
   0.489186036903449   0.834537836535894   0.203927223423650
   0.989186036903449   0.834537836535894   0.203927223423650
   0.489186036903449   0.334537836535894   0.703927223423650
   0.989186036903449   0.334537836535894   0.703927223423650
   0.489186036903449   0.834537836535894   0.703927223423650
   0.989186036903449   0.834537836535894   0.703927223423650
   0.010817948962853   0.165458492010313   0.296076297705371
   0.510817948962853   0.165458492010313   0.296076297705371
   0.010817948962853   0.665458492010313   0.296076297705371
   0.510817948962853   0.665458492010313   0.296076297705371
   0.010817948962853   0.165458492010313   0.796076297705371
   0.510817948962853   0.165458492010313   0.796076297705371
   0.010817948962853   0.665458492010313   0.796076297705371
   0.510817948962853   0.665458492010313   0.796076297705371
   0.091864755393516   0.448121437995875   0.076357337932723
   0.591864755393516   0.448121437995875   0.076357337932723
   0.091864755393516   0.948121437995875   0.076357337932723
   0.591864755393516   0.948121437995875   0.076357337932723
   0.091864755393516   0.448121437995875   0.576357337932723
   0.591864755393516   0.448121437995875   0.576357337932723
   0.091864755393516   0.948121437995875   0.576357337932723
   0.591864755393516   0.948121437995875   0.576357337932723
   0.408139279111545   0.051874875933775   0.423646102233672
   0.908139279111545   0.051874875933775   0.423646102233672
   0.408139279111545   0.551874875933775   0.423646102233672
   0.908139279111545   0.551874875933775   0.423646102233672
   0.408139279111545   0.051874875933775   0.923646102233672
   0.908139279111545   0.051874875933775   0.923646102233672
   0.408139279111545   0.551874875933775   0.923646102233672
   0.908139279111545   0.551874875933775   0.923646102233672
   0.091864708391728   0.301874877527155   0.326357350389492
   0.591864708391728   0.301874877527155   0.326357350389492
   0.091864708391728   0.801874877527155   0.326357350389492
   0.591864708391728   0.801874877527155   0.326357350389492
   0.091864708391728   0.301874877527155   0.826357350389492
   0.591864708391728   0.301874877527155   0.826357350389492
   0.091864708391728   0.801874877527155   0.826357350389492
   0.591864708391728   0.801874877527155   0.826357350389492
   0.408139267007235   0.198121455985873   0.173646178147456
   0.908139267007235   0.198121455985873   0.173646178147456
   0.408139267007235   0.698121455985873   0.173646178147456
   0.908139267007235   0.698121455985873   0.173646178147456
   0.408139267007235   0.198121455985873   0.673646178147456
   0.908139267007235   0.198121455985873   0.673646178147456
   0.408139267007235   0.698121455985873   0.673646178147456
   0.908139267007235   0.698121455985873   0.673646178147456
   0.270848796590292   0.439799787977986   0.308125012095588
   0.770848796590292   0.439799787977986   0.308125012095588
   0.270848796590292   0.939799787977986   0.308125012095588
   0.770848796590292   0.939799787977986   0.308125012095588
   0.270848796590292   0.439799787977986   0.808125012095588
   0.770848796590292   0.439799787977986   0.808125012095588
   0.270848796590292   0.939799787977986   0.808125012095588
   0.770848796590292   0.939799787977986   0.808125012095588
   0.229155249514598   0.060196529160358   0.191878442579790
   0.729155249514598   0.060196529160358   0.191878442579790
   0.229155249514598   0.560196529160358   0.191878442579790
   0.729155249514598   0.560196529160358   0.191878442579790
   0.229155249514598   0.060196529160358   0.691878442579790
   0.729155249514598   0.060196529160358   0.691878442579790
   0.229155249514598   0.560196529160358   0.691878442579790
   0.729155249514598   0.560196529160358   0.691878442579790
   0.270848773288358   0.310196525255417   0.058125042444799
   0.770848773288358   0.310196525255417   0.058125042444799
   0.270848773288358   0.810196525255417   0.058125042444799
   0.770848773288358   0.810196525255417   0.058125042444799
   0.270848773288358   0.310196525255417   0.558125042444799
   0.770848773288358   0.310196525255417   0.558125042444799
   0.270848773288358   0.810196525255417   0.558125042444799
   0.770848773288358   0.810196525255417   0.558125042444799
   0.229155218122145   0.189799800705178   0.441878495228465
   0.729155218122145   0.189799800705178   0.441878495228465
   0.229155218122145   0.689799800705178   0.441878495228465
   0.729155218122145   0.689799800705178   0.441878495228465
   0.229155218122145   0.189799800705178   0.941878495228464
   0.729155218122145   0.189799800705178   0.941878495228464
   0.229155218122145   0.689799800705178   0.941878495228464
   0.729155218122145   0.689799800705178   0.941878495228464
   0.122259669198836   0.038292233966455   0.307093837454186
   0.622259669198836   0.038292233966455   0.307093837454186
   0.122259669198836   0.538292233966455   0.307093837454186
   0.622259669198836   0.538292233966455   0.307093837454186
   0.122259669198836   0.038292233966455   0.807093837454186
   0.622259669198836   0.038292233966455   0.807093837454186
   0.122259669198836   0.538292233966455   0.807093837454186
   0.622259669198836   0.538292233966455   0.807093837454186
   0.377744365285780   0.461704076411559   0.192909602554240
   0.877744365285780   0.461704076411559   0.192909602554240
   0.377744365285780   0.961704076411559   0.192909602554240
   0.877744365285780   0.961704076411559   0.192909602554240
   0.377744365285780   0.461704076411559   0.692909602554240
   0.877744365285780   0.461704076411559   0.692909602554240
   0.377744365285780   0.961704076411559   0.692909602554240
   0.877744365285780   0.961704076411559   0.692909602554240
   0.122259649226996   0.211704088552198   0.057093912664492
   0.622259649226996   0.211704088552198   0.057093912664492
   0.122259649226996   0.711704088552198   0.057093912664492
   0.622259649226996   0.711704088552198   0.057093912664492
   0.122259649226996   0.211704088552198   0.557093912664492
   0.622259649226996   0.211704088552198   0.557093912664492
   0.122259649226996   0.711704088552198   0.557093912664492
   0.622259649226996   0.711704088552198   0.557093912664492
   0.377744351539619   0.288292229906801   0.442909643865642
   0.877744351539619   0.288292229906801   0.442909643865642
   0.377744351539619   0.788292229906801   0.442909643865642
   0.877744351539619   0.788292229906801   0.442909643865642
   0.377744351539619   0.288292229906801   0.942909643865642
   0.877744351539619   0.288292229906801   0.942909643865642
   0.377744351539619   0.788292229906801   0.942909643865642
   0.877744351539619   0.788292229906801   0.942909643865642
   0.216502663655054   0.429481468753904   0.381015377921683
   0.716502663655054   0.429481468753904   0.381015377921683
   0.216502663655054   0.929481468753904   0.381015377921683
   0.716502663655054   0.929481468753904   0.381015377921683
   0.216502663655054   0.429481468753904   0.881015377921683
   0.716502663655054   0.429481468753904   0.881015377921683
   0.216502663655054   0.929481468753904   0.881015377921683
   0.716502663655054   0.929481468753904   0.881015377921683
   0.283501384719132   0.070514853944213   0.118988083057372
   0.783501384719132   0.070514853944213   0.118988083057372
   0.283501384719132   0.570514853944213   0.118988083057372
   0.783501384719132   0.570514853944213   0.118988083057372
   0.283501384719132   0.070514853944213   0.618988083057372
   0.783501384719132   0.070514853944213   0.618988083057372
   0.283501384719132   0.570514853944213   0.618988083057372
   0.783501384719132   0.570514853944213   0.618988083057372
   0.216502642261714   0.320514851234897   0.131015403026997
   0.716502642261714   0.320514851234897   0.131015403026997
   0.216502642261714   0.820514851234897   0.131015403026997
   0.716502642261714   0.820514851234897   0.131015403026997
   0.216502642261714   0.320514851234897   0.631015403026997
   0.716502642261714   0.320514851234897   0.631015403026997
   0.216502642261714   0.820514851234897   0.631015403026997
   0.716502642261714   0.820514851234897   0.631015403026997
   0.283501340255333   0.179481483687765   0.368988127045605
   0.783501340255333   0.179481483687765   0.368988127045605
   0.283501340255333   0.679481483687765   0.368988127045605
   0.783501340255333   0.679481483687765   0.368988127045605
   0.283501340255333   0.179481483687765   0.868988127045605
   0.783501340255333   0.179481483687765   0.868988127045605
   0.283501340255333   0.679481483687765   0.868988127045605
   0.783501340255333   0.679481483687765   0.868988127045605
