 C  O 
        1.0000000000
  16.827688096650284   0.000000000000000   0.000000000000000
   0.000000000000000  16.827688096650284   0.000000000000000
   0.000000000000000   0.000000000000000  16.827688096650284
  108  216
 Direct
   0.019995928809424   0.019995925220599   0.019995925025317
   0.353329262142757   0.019995925220599   0.019995925025317
   0.686662595476091   0.019995925220599   0.019995925025317
   0.019995928809424   0.353329258553932   0.019995925025317
   0.353329262142757   0.353329258553932   0.019995925025317
   0.686662595476091   0.353329258553932   0.019995925025317
   0.019995928809424   0.686662591887266   0.019995925025317
   0.353329262142757   0.686662591887266   0.019995925025317
   0.686662595476091   0.686662591887266   0.019995925025317
   0.019995928809424   0.019995925220599   0.353329258358650
   0.353329262142757   0.019995925220599   0.353329258358650
   0.686662595476091   0.019995925220599   0.353329258358650
   0.019995928809424   0.353329258553932   0.353329258358650
   0.353329262142757   0.353329258553932   0.353329258358650
   0.686662595476091   0.353329258553932   0.353329258358650
   0.019995928809424   0.686662591887266   0.353329258358650
   0.353329262142757   0.686662591887266   0.353329258358650
   0.686662595476091   0.686662591887266   0.353329258358650
   0.019995928809424   0.019995925220599   0.686662591691984
   0.353329262142757   0.019995925220599   0.686662591691984
   0.686662595476091   0.019995925220599   0.686662591691984
   0.019995928809424   0.353329258553932   0.686662591691984
   0.353329262142757   0.353329258553932   0.686662591691984
   0.686662595476091   0.353329258553932   0.686662591691984
   0.019995928809424   0.686662591887266   0.686662591691984
   0.353329262142757   0.686662591887266   0.686662591691984
   0.686662595476091   0.686662591887266   0.686662591691984
   0.186662595476091   0.019995925220599   0.186662591691984
   0.519995928809424   0.019995925220599   0.186662591691984
   0.853329262142757   0.019995925220599   0.186662591691984
   0.186662595476091   0.353329258553932   0.186662591691984
   0.519995928809424   0.353329258553932   0.186662591691984
   0.853329262142757   0.353329258553932   0.186662591691984
   0.186662595476091   0.686662591887266   0.186662591691984
   0.519995928809424   0.686662591887266   0.186662591691984
   0.853329262142757   0.686662591887266   0.186662591691984
   0.186662595476091   0.019995925220599   0.519995925025317
   0.519995928809424   0.019995925220599   0.519995925025317
   0.853329262142757   0.019995925220599   0.519995925025317
   0.186662595476091   0.353329258553932   0.519995925025317
   0.519995928809424   0.353329258553932   0.519995925025317
   0.853329262142757   0.353329258553932   0.519995925025317
   0.186662595476091   0.686662591887266   0.519995925025317
   0.519995928809424   0.686662591887266   0.519995925025317
   0.853329262142757   0.686662591887266   0.519995925025317
   0.186662595476091   0.019995925220599   0.853329258358650
   0.519995928809424   0.019995925220599   0.853329258358650
   0.853329262142757   0.019995925220599   0.853329258358650
   0.186662595476091   0.353329258553932   0.853329258358650
   0.519995928809424   0.353329258553932   0.853329258358650
   0.853329262142757   0.353329258553932   0.853329258358650
   0.186662595476091   0.686662591887266   0.853329258358650
   0.519995928809424   0.686662591887266   0.853329258358650
   0.853329262142757   0.686662591887266   0.853329258358650
   0.019995928809424   0.186662591887266   0.186662591691984
   0.353329262142757   0.186662591887266   0.186662591691984
   0.686662595476091   0.186662591887266   0.186662591691984
   0.019995928809424   0.519995925220599   0.186662591691984
   0.353329262142757   0.519995925220599   0.186662591691984
   0.686662595476091   0.519995925220599   0.186662591691984
   0.019995928809424   0.853329258553932   0.186662591691984
   0.353329262142757   0.853329258553932   0.186662591691984
   0.686662595476091   0.853329258553932   0.186662591691984
   0.019995928809424   0.186662591887266   0.519995925025317
   0.353329262142757   0.186662591887266   0.519995925025317
   0.686662595476091   0.186662591887266   0.519995925025317
   0.019995928809424   0.519995925220599   0.519995925025317
   0.353329262142757   0.519995925220599   0.519995925025317
   0.686662595476091   0.519995925220599   0.519995925025317
   0.019995928809424   0.853329258553932   0.519995925025317
   0.353329262142757   0.853329258553932   0.519995925025317
   0.686662595476091   0.853329258553932   0.519995925025317
   0.019995928809424   0.186662591887266   0.853329258358650
   0.353329262142757   0.186662591887266   0.853329258358650
   0.686662595476091   0.186662591887266   0.853329258358650
   0.019995928809424   0.519995925220599   0.853329258358650
   0.353329262142757   0.519995925220599   0.853329258358650
   0.686662595476091   0.519995925220599   0.853329258358650
   0.019995928809424   0.853329258553932   0.853329258358650
   0.353329262142757   0.853329258553932   0.853329258358650
   0.686662595476091   0.853329258553932   0.853329258358650
   0.186662595476091   0.186662591887266   0.019995925025317
   0.519995928809424   0.186662591887266   0.019995925025317
   0.853329262142757   0.186662591887266   0.019995925025317
   0.186662595476091   0.519995925220599   0.019995925025317
   0.519995928809424   0.519995925220599   0.019995925025317
   0.853329262142757   0.519995925220599   0.019995925025317
   0.186662595476091   0.853329258553932   0.019995925025317
   0.519995928809424   0.853329258553932   0.019995925025317
   0.853329262142757   0.853329258553932   0.019995925025317
   0.186662595476091   0.186662591887266   0.353329258358650
   0.519995928809424   0.186662591887266   0.353329258358650
   0.853329262142757   0.186662591887266   0.353329258358650
   0.186662595476091   0.519995925220599   0.353329258358650
   0.519995928809424   0.519995925220599   0.353329258358650
   0.853329262142757   0.519995925220599   0.353329258358650
   0.186662595476091   0.853329258553932   0.353329258358650
   0.519995928809424   0.853329258553932   0.353329258358650
   0.853329262142757   0.853329258553932   0.353329258358650
   0.186662595476091   0.186662591887266   0.686662591691984
   0.519995928809424   0.186662591887266   0.686662591691984
   0.853329262142757   0.186662591887266   0.686662591691984
   0.186662595476091   0.519995925220599   0.686662591691984
   0.519995928809424   0.519995925220599   0.686662591691984
   0.853329262142757   0.519995925220599   0.686662591691984
   0.186662595476091   0.853329258553932   0.686662591691984
   0.519995928809424   0.853329258553932   0.686662591691984
   0.853329262142757   0.853329258553932   0.686662591691984
   0.060131489734043   0.060131486145218   0.060131485949936
   0.393464823067376   0.060131486145218   0.060131485949936
   0.726798156400710   0.060131486145218   0.060131485949936
   0.060131489734043   0.393464819478551   0.060131485949936
   0.393464823067376   0.393464819478551   0.060131485949936
   0.726798156400710   0.393464819478551   0.060131485949936
   0.060131489734043   0.726798152811885   0.060131485949936
   0.393464823067376   0.726798152811885   0.060131485949936
   0.726798156400710   0.726798152811885   0.060131485949936
   0.060131489734043   0.060131486145218   0.393464819283269
   0.393464823067376   0.060131486145218   0.393464819283269
   0.726798156400710   0.060131486145218   0.393464819283269
   0.060131489734043   0.393464819478551   0.393464819283269
   0.393464823067376   0.393464819478551   0.393464819283269
   0.726798156400710   0.393464819478551   0.393464819283269
   0.060131489734043   0.726798152811885   0.393464819283269
   0.393464823067376   0.726798152811885   0.393464819283269
   0.726798156400710   0.726798152811885   0.393464819283269
   0.060131489734043   0.060131486145218   0.726798152616603
   0.393464823067376   0.060131486145218   0.726798152616603
   0.726798156400710   0.060131486145218   0.726798152616603
   0.060131489734043   0.393464819478551   0.726798152616603
   0.393464823067376   0.393464819478551   0.726798152616603
   0.726798156400710   0.393464819478551   0.726798152616603
   0.060131489734043   0.726798152811885   0.726798152616603
   0.393464823067376   0.726798152811885   0.726798152616603
   0.726798156400710   0.726798152811885   0.726798152616603
   0.313193701218138   0.313193697629313   0.313193697434031
   0.646527034551472   0.313193697629313   0.313193697434031
   0.979860367884805   0.313193697629313   0.313193697434031
   0.313193701218138   0.646527030962647   0.313193697434031
   0.646527034551472   0.646527030962647   0.313193697434031
   0.979860367884805   0.646527030962647   0.313193697434031
   0.313193701218138   0.979860364295980   0.313193697434031
   0.646527034551472   0.979860364295980   0.313193697434031
   0.979860367884805   0.979860364295980   0.313193697434031
   0.313193701218138   0.313193697629313   0.646527030767365
   0.646527034551472   0.313193697629313   0.646527030767365
   0.979860367884805   0.313193697629313   0.646527030767365
   0.313193701218138   0.646527030962647   0.646527030767365
   0.646527034551472   0.646527030962647   0.646527030767365
   0.979860367884805   0.646527030962647   0.646527030767365
   0.313193701218138   0.979860364295980   0.646527030767365
   0.646527034551472   0.979860364295980   0.646527030767365
   0.979860367884805   0.979860364295980   0.646527030767365
   0.313193701218138   0.313193697629313   0.979860364100698
   0.646527034551472   0.313193697629313   0.979860364100698
   0.979860367884805   0.313193697629313   0.979860364100698
   0.313193701218138   0.646527030962647   0.979860364100698
   0.646527034551472   0.646527030962647   0.979860364100698
   0.979860367884805   0.646527030962647   0.979860364100698
   0.313193701218138   0.979860364295980   0.979860364100698
   0.646527034551472   0.979860364295980   0.979860364100698
   0.979860367884805   0.979860364295980   0.979860364100698
   0.146527034551472   0.313193697629313   0.226798152616603
   0.479860367884805   0.313193697629313   0.226798152616603
   0.813193701218138   0.313193697629313   0.226798152616603
   0.146527034551472   0.646527030962647   0.226798152616603
   0.479860367884805   0.646527030962647   0.226798152616603
   0.813193701218138   0.646527030962647   0.226798152616603
   0.146527034551472   0.979860364295980   0.226798152616603
   0.479860367884805   0.979860364295980   0.226798152616603
   0.813193701218138   0.979860364295980   0.226798152616603
   0.146527034551472   0.313193697629313   0.560131485949936
   0.479860367884805   0.313193697629313   0.560131485949936
   0.813193701218138   0.313193697629313   0.560131485949936
   0.146527034551472   0.646527030962647   0.560131485949936
   0.479860367884805   0.646527030962647   0.560131485949936
   0.813193701218138   0.646527030962647   0.560131485949936
   0.146527034551472   0.979860364295980   0.560131485949936
   0.479860367884805   0.979860364295980   0.560131485949936
   0.813193701218138   0.979860364295980   0.560131485949936
   0.146527034551472   0.313193697629313   0.893464819283269
   0.479860367884805   0.313193697629313   0.893464819283269
   0.813193701218138   0.313193697629313   0.893464819283269
   0.146527034551472   0.646527030962647   0.893464819283269
   0.479860367884805   0.646527030962647   0.893464819283269
   0.813193701218138   0.646527030962647   0.893464819283269
   0.146527034551472   0.979860364295980   0.893464819283269
   0.479860367884805   0.979860364295980   0.893464819283269
   0.813193701218138   0.979860364295980   0.893464819283269
   0.226798156400710   0.060131486145218   0.146527030767365
   0.560131489734043   0.060131486145218   0.146527030767365
   0.893464823067376   0.060131486145218   0.146527030767365
   0.226798156400710   0.393464819478551   0.146527030767365
   0.560131489734043   0.393464819478551   0.146527030767365
   0.893464823067376   0.393464819478551   0.146527030767365
   0.226798156400710   0.726798152811885   0.146527030767365
   0.560131489734043   0.726798152811885   0.146527030767365
   0.893464823067376   0.726798152811885   0.146527030767365
   0.226798156400710   0.060131486145218   0.479860364100698
   0.560131489734043   0.060131486145218   0.479860364100698
   0.893464823067376   0.060131486145218   0.479860364100698
   0.226798156400710   0.393464819478551   0.479860364100698
   0.560131489734043   0.393464819478551   0.479860364100698
   0.893464823067376   0.393464819478551   0.479860364100698
   0.226798156400710   0.726798152811885   0.479860364100698
   0.560131489734043   0.726798152811885   0.479860364100698
   0.893464823067376   0.726798152811885   0.479860364100698
   0.226798156400710   0.060131486145218   0.813193697434031
   0.560131489734043   0.060131486145218   0.813193697434031
   0.893464823067376   0.060131486145218   0.813193697434031
   0.226798156400710   0.393464819478551   0.813193697434031
   0.560131489734043   0.393464819478551   0.813193697434031
   0.893464823067376   0.393464819478551   0.813193697434031
   0.226798156400710   0.726798152811885   0.813193697434031
   0.560131489734043   0.726798152811885   0.813193697434031
   0.893464823067376   0.726798152811885   0.813193697434031
   0.313193701218138   0.226798152811885   0.146527030767365
   0.646527034551472   0.226798152811885   0.146527030767365
   0.979860367884805   0.226798152811885   0.146527030767365
   0.313193701218138   0.560131486145218   0.146527030767365
   0.646527034551472   0.560131486145218   0.146527030767365
   0.979860367884805   0.560131486145218   0.146527030767365
   0.313193701218138   0.893464819478551   0.146527030767365
   0.646527034551472   0.893464819478551   0.146527030767365
   0.979860367884805   0.893464819478551   0.146527030767365
   0.313193701218138   0.226798152811885   0.479860364100698
   0.646527034551472   0.226798152811885   0.479860364100698
   0.979860367884805   0.226798152811885   0.479860364100698
   0.313193701218138   0.560131486145218   0.479860364100698
   0.646527034551472   0.560131486145218   0.479860364100698
   0.979860367884805   0.560131486145218   0.479860364100698
   0.313193701218138   0.893464819478551   0.479860364100698
   0.646527034551472   0.893464819478551   0.479860364100698
   0.979860367884805   0.893464819478551   0.479860364100698
   0.313193701218138   0.226798152811885   0.813193697434031
   0.646527034551472   0.226798152811885   0.813193697434031
   0.979860367884805   0.226798152811885   0.813193697434031
   0.313193701218138   0.560131486145218   0.813193697434031
   0.646527034551472   0.560131486145218   0.813193697434031
   0.979860367884805   0.560131486145218   0.813193697434031
   0.313193701218138   0.893464819478551   0.813193697434031
   0.646527034551472   0.893464819478551   0.813193697434031
   0.979860367884805   0.893464819478551   0.813193697434031
   0.060131489734043   0.146527030962647   0.226798152616603
   0.393464823067376   0.146527030962647   0.226798152616603
   0.726798156400710   0.146527030962647   0.226798152616603
   0.060131489734043   0.479860364295980   0.226798152616603
   0.393464823067376   0.479860364295980   0.226798152616603
   0.726798156400710   0.479860364295980   0.226798152616603
   0.060131489734043   0.813193697629313   0.226798152616603
   0.393464823067376   0.813193697629313   0.226798152616603
   0.726798156400710   0.813193697629313   0.226798152616603
   0.060131489734043   0.146527030962647   0.560131485949936
   0.393464823067376   0.146527030962647   0.560131485949936
   0.726798156400710   0.146527030962647   0.560131485949936
   0.060131489734043   0.479860364295980   0.560131485949936
   0.393464823067376   0.479860364295980   0.560131485949936
   0.726798156400710   0.479860364295980   0.560131485949936
   0.060131489734043   0.813193697629313   0.560131485949936
   0.393464823067376   0.813193697629313   0.560131485949936
   0.726798156400710   0.813193697629313   0.560131485949936
   0.060131489734043   0.146527030962647   0.893464819283269
   0.393464823067376   0.146527030962647   0.893464819283269
   0.726798156400710   0.146527030962647   0.893464819283269
   0.060131489734043   0.479860364295980   0.893464819283269
   0.393464823067376   0.479860364295980   0.893464819283269
   0.726798156400710   0.479860364295980   0.893464819283269
   0.060131489734043   0.813193697629313   0.893464819283269
   0.393464823067376   0.813193697629313   0.893464819283269
   0.726798156400710   0.813193697629313   0.893464819283269
   0.226798156400710   0.146527030962647   0.313193697434031
   0.560131489734043   0.146527030962647   0.313193697434031
   0.893464823067376   0.146527030962647   0.313193697434031
   0.226798156400710   0.479860364295980   0.313193697434031
   0.560131489734043   0.479860364295980   0.313193697434031
   0.893464823067376   0.479860364295980   0.313193697434031
   0.226798156400710   0.813193697629313   0.313193697434031
   0.560131489734043   0.813193697629313   0.313193697434031
   0.893464823067376   0.813193697629313   0.313193697434031
   0.226798156400710   0.146527030962647   0.646527030767365
   0.560131489734043   0.146527030962647   0.646527030767365
   0.893464823067376   0.146527030962647   0.646527030767365
   0.226798156400710   0.479860364295980   0.646527030767365
   0.560131489734043   0.479860364295980   0.646527030767365
   0.893464823067376   0.479860364295980   0.646527030767365
   0.226798156400710   0.813193697629313   0.646527030767365
   0.560131489734043   0.813193697629313   0.646527030767365
   0.893464823067376   0.813193697629313   0.646527030767365
   0.226798156400710   0.146527030962647   0.979860364100698
   0.560131489734043   0.146527030962647   0.979860364100698
   0.893464823067376   0.146527030962647   0.979860364100698
   0.226798156400710   0.479860364295980   0.979860364100698
   0.560131489734043   0.479860364295980   0.979860364100698
   0.893464823067376   0.479860364295980   0.979860364100698
   0.226798156400710   0.813193697629313   0.979860364100698
   0.560131489734043   0.813193697629313   0.979860364100698
   0.893464823067376   0.813193697629313   0.979860364100698
   0.146527034551472   0.226798152811885   0.060131485949936
   0.479860367884805   0.226798152811885   0.060131485949936
   0.813193701218138   0.226798152811885   0.060131485949936
   0.146527034551472   0.560131486145218   0.060131485949936
   0.479860367884805   0.560131486145218   0.060131485949936
   0.813193701218138   0.560131486145218   0.060131485949936
   0.146527034551472   0.893464819478551   0.060131485949936
   0.479860367884805   0.893464819478551   0.060131485949936
   0.813193701218138   0.893464819478551   0.060131485949936
   0.146527034551472   0.226798152811885   0.393464819283269
   0.479860367884805   0.226798152811885   0.393464819283269
   0.813193701218138   0.226798152811885   0.393464819283269
   0.146527034551472   0.560131486145218   0.393464819283269
   0.479860367884805   0.560131486145218   0.393464819283269
   0.813193701218138   0.560131486145218   0.393464819283269
   0.146527034551472   0.893464819478551   0.393464819283269
   0.479860367884805   0.893464819478551   0.393464819283269
   0.813193701218138   0.893464819478551   0.393464819283269
   0.146527034551472   0.226798152811885   0.726798152616603
   0.479860367884805   0.226798152811885   0.726798152616603
   0.813193701218138   0.226798152811885   0.726798152616603
   0.146527034551472   0.560131486145218   0.726798152616603
   0.479860367884805   0.560131486145218   0.726798152616603
   0.813193701218138   0.560131486145218   0.726798152616603
   0.146527034551472   0.893464819478551   0.726798152616603
   0.479860367884805   0.893464819478551   0.726798152616603
   0.813193701218138   0.893464819478551   0.726798152616603
