 C  H  O 
 1.0000000000000000
     6.6500000000000004    0.0000000000000000    0.0000000000000000
     0.0000000000000000    6.2100000000000000    0.0000000000000000
    -1.1717000000000000    0.0000000000000000    6.7693399999999997
 C   H   O  
  12  16   4
Cartesian
  2.3357979550696095  1.0469609092334862  3.0355641854488891
  3.1424931430870919  4.1519618864645871  3.7337612465292813
  3.1479364138968284  1.0594028399306283  1.7449993433529298
  2.3303548650479442  4.1644033546448371  5.0243260949738078
  2.3017662128669367  1.3346240702446051  0.4813934974811544
  3.1765235847473345  4.4396246446596725  6.2879329797685219
  1.0810851825503569  0.4277211679495914  0.4012236754210134
  4.3972045079750153  3.5327214916114542  6.3681019646906067
  0.3550372475619518  0.1499117748602380  1.7151099283011229
  5.1232535190502695  3.2549126166387259  5.0542160792497652
  0.8229223630469780  1.0466681150383292  2.8879588467409785
  4.6553686896197277  4.1516689982794537  3.8813670680358991
  3.9529559286744291  1.7927431932356803  1.8388591684012265
  1.5253346445481200  4.8977425099527041  4.9304664694544025
  3.6197161608066653  0.0729655563465123  1.6746234220998821
  1.8585758776426546  3.1779659199044721  5.0947017446835714
  1.9197324441517192  2.3633980785604445  0.5310271658721667
  3.5585571982996296  5.4683988238191885  6.2383001875617916
  1.7204953751262009  1.2302437135579116  6.3388167475246142
  3.7577937205699854  4.3352428680234709  0.4305095772557003
  0.5293868554891489  5.3037517633683811  1.9533578538823371
  4.9489028721548474  2.1987526759012423  4.8159678907241474
  5.9338078742007996  0.2686290121676526  1.5436536612730865
 -0.4555168494714942  3.3736294136517868  5.2256730339109962
  0.5333180608496553  2.0856697917033902  2.6745010796077846
  4.9449742481531755  5.1906705917847216  4.0948231428153532
  0.3616660728668085  0.7520600224093708  3.8331817806351642
  5.1166244370943934  3.8570595680489226  2.9361446730939713
  2.8942835934663873  1.0302335920855394  4.1326835734341509
  2.5840074049974042  4.1352341810363482  2.6366418446143061
 -0.4669235802014371  6.1337444412293873  6.1137520104833403
  5.9452123243021182  3.0287432078226608  0.6555731624944224
