 C  O  N  H 
 1.0000000000000000
    25.0000000000000000    0.0000000000000000    0.0000000000000000
     0.0000000000000000   25.0000000000000000    0.0000000000000000
     0.0000000000000000    0.0000000000000000   25.0000000000000000
 C   O   N   H  
   1   1   1   3
Cartesian
 13.0875899999999987 12.4811300000000003 12.5115799999999986
 13.8406999999999982 13.2074600000000011 11.8870299999999993
 11.7342300000000002 12.6224600000000002 12.5583099999999988
 11.1592999999999982 11.9955000000000016 13.1039700000000003
 11.2939100000000003 13.3837200000000003 12.0551499999999994
 13.4419799999999992 11.6162800000000015 13.1129700000000007
