 C  H  O                                
   1.0000000000000000     
     6.2081083115044633    0.0020086567598059    0.0000000000116960
    -0.0034340191916832    6.1919629934951130    0.0000000000222264
     0.0000000000104103    0.0000000000193397    5.4205647069643401
   C    H    O 
     8     4     8
Direct
  0.1850843852299303  0.0772317775627958  0.2499999998449169
  0.8149156149144378  0.9227682238744260  0.7500000000245564
  0.0987076079506520  0.2987422199330518  0.2500000000989502
  0.9012923911762615  0.7012577807995957  0.7499999998487326
  0.3082760022206674  0.3887449100394569  0.2499999999060805
  0.6917239971843596  0.6112550917927344  0.7500000003112390
  0.4091238340440132  0.1746124077877714  0.2500000001500595
  0.5908761648605643  0.8253875938036027  0.7499999998124167
  0.2795526631327558  0.7015329504297468  0.2500000000002842
  0.7204473413728807  0.2984670521143941  0.7500000000033609
  0.7881594758018403  0.2736937160843446  0.2500000000007532
  0.2118405236610321  0.7263062778661088  0.7500000000016911
  0.1068908283628865  0.8932213247466871  0.2500000000437979
  0.8931091725835422  0.1067786764191004  0.7500000000242153
  0.9075638851260730  0.3876665395526998  0.2499999999840838
  0.0924361123794957  0.6123334570077048  0.7500000000234124
  0.3934513217373174  0.5820963517987517  0.2500000000160512
  0.6065486802215494  0.4179036490802822  0.7499999998929496
  0.5953357610796721  0.1026613134091377  0.2499999999543761
  0.4046642369598268  0.8973386858974935  0.7500000000582290

  0.00000000E+00  0.00000000E+00  0.00000000E+00
  0.00000000E+00  0.00000000E+00  0.00000000E+00
  0.00000000E+00  0.00000000E+00  0.00000000E+00
  0.00000000E+00  0.00000000E+00  0.00000000E+00
  0.00000000E+00  0.00000000E+00  0.00000000E+00
  0.00000000E+00  0.00000000E+00  0.00000000E+00
  0.00000000E+00  0.00000000E+00  0.00000000E+00
  0.00000000E+00  0.00000000E+00  0.00000000E+00
  0.00000000E+00  0.00000000E+00  0.00000000E+00
  0.00000000E+00  0.00000000E+00  0.00000000E+00
  0.00000000E+00  0.00000000E+00  0.00000000E+00
  0.00000000E+00  0.00000000E+00  0.00000000E+00
  0.00000000E+00  0.00000000E+00  0.00000000E+00
  0.00000000E+00  0.00000000E+00  0.00000000E+00
  0.00000000E+00  0.00000000E+00  0.00000000E+00
  0.00000000E+00  0.00000000E+00  0.00000000E+00
  0.00000000E+00  0.00000000E+00  0.00000000E+00
  0.00000000E+00  0.00000000E+00  0.00000000E+00
  0.00000000E+00  0.00000000E+00  0.00000000E+00
  0.00000000E+00  0.00000000E+00  0.00000000E+00
