super cell
        1.0000000000
   9.674829654617486   0.000000000000000   0.000000000000000
  -4.837414827308743   8.378651213167382   0.000000000000000
   0.000000000000000   0.000000000000000  14.144692111223401
   36   36   36
 Direct
   0.000000044396970   0.135354401732609   0.124999997793310
   0.000000044396970   0.135354401732609   0.624999997793310
   0.999999969651967   0.864645599823387   0.374999989939738
   0.999999969651967   0.864645599823387   0.874999989939738
   0.864645446315226   0.864645423845839   0.124999962970279
   0.864645446315226   0.864645423845839   0.624999962970279
   0.135354652144063   0.135354620839319   0.375000045768360
   0.135354652144063   0.135354620839319   0.875000045768360
   0.135354484842640   0.000000021994609   0.125000004458208
   0.135354484842640   0.000000021994609   0.625000004458208
   0.864645576819494   0.999999982094280   0.374999968837272
   0.864645576819494   0.999999982094280   0.874999968837272
   0.666656661255265   0.468680691696204   0.291669669679138
   0.666656661255265   0.468680691696204   0.791669669679138
   0.666656645799462   0.197975980450431   0.041669646743177
   0.666656645799462   0.197975980450431   0.541669646743177
   0.531319158781638   0.197975837397821   0.291669634084578
   0.531319158781638   0.197975837397821   0.791669634084578
   0.802024230447890   0.468680862973284   0.041669679573442
   0.802024230447890   0.468680862973284   0.541669679573442
   0.802024118085746   0.333343395749013   0.291669646956102
   0.802024118085746   0.333343395749013   0.791669646956102
   0.531319266610228   0.333343338039109   0.041669658239258
   0.531319266610228   0.333343338039109   0.541669658239258
   0.333343422665111   0.802024064924345   0.458330352587204
   0.333343422665111   0.802024064924345   0.958330352587204
   0.333343368732224   0.531319268792085   0.208330322275635
   0.333343368732224   0.531319268792085   0.708330322275635
   0.197975730917464   0.531319135325606   0.458330353256826
   0.197975730917464   0.531319135325606   0.958330353256826
   0.468680928113334   0.802024211516062   0.208330325367669
   0.468680928113334   0.802024211516062   0.708330325367669
   0.468680774886675   0.666656632941878   0.458330349994284
   0.468680774886675   0.666656632941878   0.958330349994284
   0.197975912275134   0.666656602136646   0.208330342489560
   0.197975912275134   0.666656602136646   0.708330342489560
   0.999999978462320   0.247477999936255   0.125000017738031
   0.999999978462320   0.247477999936255   0.625000017738031
   0.000000065065024   0.752522002451588   0.374999982810376
   0.000000065065024   0.752522002451588   0.874999982810376
   0.752521842959392   0.752521852668227   0.124999985649787
   0.752521842959392   0.752521852668227   0.624999985649787
   0.247478213605451   0.247478158018755   0.375000021745095
   0.247478213605451   0.247478158018755   0.875000021745095
   0.247478188414807   0.999999986562898   0.124999995438632
   0.247478188414807   0.999999986562898   0.624999995438632
   0.752521866397539   0.000000013437102   0.374999995243911
   0.752521866397539   0.000000013437102   0.874999995243911
   0.666649170570145   0.580804038819796   0.291669060200340
   0.666649170570145   0.580804038819796   0.791669060200340
   0.666649280842256   0.085845215221086   0.041669028043521
   0.666649280842256   0.085845215221086   0.541669028043521
   0.419195867169594   0.085845089587808   0.291669026952269
   0.419195867169594   0.085845089587808   0.791669026952269
   0.914154958707675   0.580804150816189   0.041669066142009
   0.914154958707675   0.580804150816189   0.541669066142009
   0.914154936671187   0.333350791443018   0.291669034338297
   0.914154936671187   0.333350791443018   0.791669034338297
   0.419195867815115   0.333350798986197   0.041669063825305
   0.419195867815115   0.333350798986197   0.541669063825305
   0.333350771959873   0.914154798317247   0.458330977476707
   0.333350771959873   0.914154798317247   0.958330977476707
   0.333350865369561   0.419195963308101   0.208330927985505
   0.333350865369561   0.419195963308101   0.708330927985505
   0.085845043204801   0.419195840038422   0.458330951076392
   0.085845043204801   0.419195840038422   0.958330951076392
   0.580804195795562   0.914154917838699   0.208330945530137
   0.580804195795562   0.914154917838699   0.708330945530137
   0.580804157797534   0.666649168921139   0.458330945458877
   0.580804157797534   0.666649168921139   0.958330945458877
   0.085845095751255   0.666649230821213   0.208330957415037
   0.085845095751255   0.666649230821213   0.708330957415037
   0.857457724230791   0.999999962109179   0.125000013379626
   0.857457724230791   0.999999962109179   0.625000013379626
   0.142542347645304   0.000000059307027   0.374999995271462
   0.142542347645304   0.000000059307027   0.874999995271462
   0.000000021537680   0.857457796149418   0.124999970904337
   0.000000021537680   0.857457796149418   0.624999970904337
   0.000000063071838   0.142542230163301   0.375000023658224
   0.000000063071838   0.142542230163301   0.875000023658224
   0.142542342623735   0.142542257568067   0.125000006335828
   0.142542342623735   0.142542257568067   0.625000006335828
   0.857457719234496   0.857457765999228   0.374999970699939
   0.857457719234496   0.857457765999228   0.874999970699939
   0.524118434577411   0.333323703481352   0.291669743814329
   0.524118434577411   0.333323703481352   0.791669743814329
   0.809205299453342   0.333323796547650   0.041669728863540
   0.809205299453342   0.333323796547650   0.541669728863540
   0.666676257235810   0.190794770184912   0.291669698921152
   0.666676257235810   0.190794770184912   0.791669698921152
   0.666676298369782   0.475881527425528   0.041669769886949
   0.666676298369782   0.475881527425528   0.541669769886949
   0.809205296541211   0.475881543339518   0.291669738017146
   0.809205296541211   0.475881543339518   0.791669738017146
   0.524118415652602   0.190794754353664   0.041669728120927
   0.524118415652602   0.190794754353664   0.541669728120927
   0.190794739696532   0.666676225787707   0.458330288100394
   0.190794739696532   0.666676225787707   0.958330288100394
   0.475881623546570   0.666676319412634   0.208330233645692
   0.475881623546570   0.666676319412634   0.708330233645692
   0.333323678334811   0.524118430884010   0.458330242553475
   0.333323678334811   0.524118430884010   0.958330242553475
   0.333323781539474   0.809205231459781   0.208330280776702
   0.333323781539474   0.809205231459781   0.708330280776702
   0.475881610770201   0.809205190053941   0.458330282623701
   0.475881610770201   0.809205190053941   0.958330282623701
   0.190794766144752   0.524118479381159   0.208330251877657
   0.190794766144752   0.524118479381159   0.708330251877657
