 C  H  O 
        1.0000000000
  18.624328003347163   0.005982785293179  -0.000000000040193
  -0.010345125305463  18.575868368451893   0.000000000014580
  -0.000000000034485   0.000000000012373  16.261691136772026
  216  108  216
 Direct
   0.056154054350281   0.029355611289190   0.083333333223503
   0.389487387683615   0.029355611289190   0.083333333223503
   0.722820721016948   0.029355611289190   0.083333333223503
   0.056154054350281   0.362688944622523   0.083333333223503
   0.389487387683615   0.362688944622523   0.083333333223503
   0.722820721016948   0.362688944622523   0.083333333223503
   0.056154054350281   0.696022277955857   0.083333333223503
   0.389487387683615   0.696022277955857   0.083333333223503
   0.722820721016948   0.696022277955857   0.083333333223503
   0.056154054350281   0.029355611289190   0.416666666556836
   0.389487387683615   0.029355611289190   0.416666666556836
   0.722820721016948   0.029355611289190   0.416666666556836
   0.056154054350281   0.362688944622523   0.416666666556836
   0.389487387683615   0.362688944622523   0.416666666556836
   0.722820721016948   0.362688944622523   0.416666666556836
   0.056154054350281   0.696022277955857   0.416666666556836
   0.389487387683615   0.696022277955857   0.416666666556836
   0.722820721016948   0.696022277955857   0.416666666556836
   0.056154054350281   0.029355611289190   0.749999999890169
   0.389487387683615   0.029355611289190   0.749999999890169
   0.722820721016948   0.029355611289190   0.749999999890169
   0.056154054350281   0.362688944622523   0.749999999890169
   0.389487387683615   0.362688944622523   0.749999999890169
   0.722820721016948   0.362688944622523   0.749999999890169
   0.056154054350281   0.696022277955857   0.749999999890169
   0.389487387683615   0.696022277955857   0.749999999890169
   0.722820721016948   0.696022277955857   0.749999999890169
   0.277179278936066   0.303977722052249   0.250000000105466
   0.610512612269399   0.303977722052249   0.250000000105466
   0.943845945602733   0.303977722052249   0.250000000105466
   0.277179278936066   0.637311055385583   0.250000000105466
   0.610512612269399   0.637311055385583   0.250000000105466
   0.943845945602733   0.637311055385583   0.250000000105466
   0.277179278936066   0.970644388718916   0.250000000105466
   0.610512612269399   0.970644388718916   0.250000000105466
   0.943845945602733   0.970644388718916   0.250000000105466
   0.277179278936066   0.303977722052249   0.583333333438799
   0.610512612269399   0.303977722052249   0.583333333438799
   0.943845945602733   0.303977722052249   0.583333333438799
   0.277179278936066   0.637311055385583   0.583333333438799
   0.610512612269399   0.637311055385583   0.583333333438799
   0.943845945602733   0.637311055385583   0.583333333438799
   0.277179278936066   0.970644388718916   0.583333333438799
   0.610512612269399   0.970644388718916   0.583333333438799
   0.943845945602733   0.970644388718916   0.583333333438799
   0.277179278936066   0.303977722052249   0.916666666772132
   0.610512612269399   0.303977722052249   0.916666666772132
   0.943845945602733   0.303977722052249   0.916666666772132
   0.277179278936066   0.637311055385583   0.916666666772132
   0.610512612269399   0.637311055385583   0.916666666772132
   0.943845945602733   0.637311055385583   0.916666666772132
   0.277179278936066   0.970644388718916   0.916666666772132
   0.610512612269399   0.970644388718916   0.916666666772132
   0.943845945602733   0.970644388718916   0.916666666772132
   0.024755786737015   0.104277858179111   0.083333333454908
   0.358089120070348   0.104277858179111   0.083333333454908
   0.691422453403681   0.104277858179111   0.083333333454908
   0.024755786737015   0.437611191512444   0.083333333454908
   0.358089120070348   0.437611191512444   0.083333333454908
   0.691422453403681   0.437611191512444   0.083333333454908
   0.024755786737015   0.770944524845778   0.083333333454908
   0.358089120070348   0.770944524845778   0.083333333454908
   0.691422453403681   0.770944524845778   0.083333333454908
   0.024755786737015   0.104277858179111   0.416666666788241
   0.358089120070348   0.104277858179111   0.416666666788241
   0.691422453403681   0.104277858179111   0.416666666788241
   0.024755786737015   0.437611191512444   0.416666666788241
   0.358089120070348   0.437611191512444   0.416666666788241
   0.691422453403681   0.437611191512444   0.416666666788241
   0.024755786737015   0.770944524845778   0.416666666788241
   0.358089120070348   0.770944524845778   0.416666666788241
   0.691422453403681   0.770944524845778   0.416666666788241
   0.024755786737015   0.104277858179111   0.750000000121574
   0.358089120070348   0.104277858179111   0.750000000121574
   0.691422453403681   0.104277858179111   0.750000000121574
   0.024755786737015   0.437611191512444   0.750000000121574
   0.358089120070348   0.437611191512444   0.750000000121574
   0.691422453403681   0.437611191512444   0.750000000121574
   0.024755786737015   0.770944524845778   0.750000000121574
   0.358089120070348   0.770944524845778   0.750000000121574
   0.691422453403681   0.770944524845778   0.750000000121574
   0.308577546628838   0.229055475160850   0.249999999926962
   0.641910879962171   0.229055475160850   0.249999999926962
   0.975244213295505   0.229055475160850   0.249999999926962
   0.308577546628838   0.562388808494183   0.249999999926962
   0.641910879962171   0.562388808494183   0.249999999926962
   0.975244213295505   0.562388808494183   0.249999999926962
   0.308577546628838   0.895722141827516   0.249999999926962
   0.641910879962171   0.895722141827516   0.249999999926962
   0.975244213295505   0.895722141827516   0.249999999926962
   0.308577546628838   0.229055475160850   0.583333333260295
   0.641910879962171   0.229055475160850   0.583333333260295
   0.975244213295505   0.229055475160850   0.583333333260295
   0.308577546628838   0.562388808494183   0.583333333260295
   0.641910879962171   0.562388808494183   0.583333333260295
   0.975244213295505   0.562388808494183   0.583333333260295
   0.308577546628838   0.895722141827516   0.583333333260295
   0.641910879962171   0.895722141827516   0.583333333260295
   0.975244213295505   0.895722141827516   0.583333333260295
   0.308577546628838   0.229055475160850   0.916666666593629
   0.641910879962171   0.229055475160850   0.916666666593629
   0.975244213295505   0.229055475160850   0.916666666593629
   0.308577546628838   0.562388808494183   0.916666666593629
   0.641910879962171   0.562388808494183   0.916666666593629
   0.975244213295505   0.562388808494183   0.916666666593629
   0.308577546628838   0.895722141827516   0.916666666593629
   0.641910879962171   0.895722141827516   0.916666666593629
   0.975244213295505   0.895722141827516   0.916666666593629
   0.097399935589428   0.137157018996532   0.083333333236882
   0.430733268922761   0.137157018996532   0.083333333236882
   0.764066602256094   0.137157018996532   0.083333333236882
   0.097399935589428   0.470490352329865   0.083333333236882
   0.430733268922761   0.470490352329865   0.083333333236882
   0.764066602256094   0.470490352329865   0.083333333236882
   0.097399935589428   0.803823685663198   0.083333333236882
   0.430733268922761   0.803823685663198   0.083333333236882
   0.764066602256094   0.803823685663198   0.083333333236882
   0.097399935589428   0.137157018996532   0.416666666570216
   0.430733268922761   0.137157018996532   0.416666666570216
   0.764066602256094   0.137157018996532   0.416666666570216
   0.097399935589428   0.470490352329865   0.416666666570216
   0.430733268922761   0.470490352329865   0.416666666570216
   0.764066602256094   0.470490352329865   0.416666666570216
   0.097399935589428   0.803823685663198   0.416666666570216
   0.430733268922761   0.803823685663198   0.416666666570216
   0.764066602256094   0.803823685663198   0.416666666570216
   0.097399935589428   0.137157018996532   0.749999999903549
   0.430733268922761   0.137157018996532   0.749999999903549
   0.764066602256094   0.137157018996532   0.749999999903549
   0.097399935589428   0.470490352329865   0.749999999903549
   0.430733268922761   0.470490352329865   0.749999999903549
   0.764066602256094   0.470490352329865   0.749999999903549
   0.097399935589428   0.803823685663198   0.749999999903549
   0.430733268922761   0.803823685663198   0.749999999903549
   0.764066602256094   0.803823685663198   0.749999999903549
   0.235933397773241   0.196176314285019   0.250000000096037
   0.569266731106574   0.196176314285019   0.250000000096037
   0.902600064439907   0.196176314285019   0.250000000096037
   0.235933397773241   0.529509647618353   0.250000000096037
   0.569266731106574   0.529509647618353   0.250000000096037
   0.902600064439907   0.529509647618353   0.250000000096037
   0.235933397773241   0.862842980951686   0.250000000096037
   0.569266731106574   0.862842980951686   0.250000000096037
   0.902600064439907   0.862842980951686   0.250000000096037
   0.235933397773241   0.196176314285019   0.583333333429370
   0.569266731106574   0.196176314285019   0.583333333429370
   0.902600064439907   0.196176314285019   0.583333333429370
   0.235933397773241   0.529509647618353   0.583333333429370
   0.569266731106574   0.529509647618353   0.583333333429370
   0.902600064439907   0.529509647618353   0.583333333429370
   0.235933397773241   0.862842980951686   0.583333333429370
   0.569266731106574   0.862842980951686   0.583333333429370
   0.902600064439907   0.862842980951686   0.583333333429370
   0.235933397773241   0.196176314285019   0.916666666762703
   0.569266731106574   0.196176314285019   0.916666666762703
   0.902600064439907   0.196176314285019   0.916666666762703
   0.235933397773241   0.529509647618353   0.916666666762703
   0.569266731106574   0.529509647618353   0.916666666762703
   0.902600064439907   0.529509647618353   0.916666666762703
   0.235933397773241   0.862842980951686   0.916666666762703
   0.569266731106574   0.862842980951686   0.916666666762703
   0.902600064439907   0.862842980951686   0.916666666762703
   0.132255515345201   0.062761455928422   0.083333333411712
   0.465588848678535   0.062761455928422   0.083333333411712
   0.798922182011868   0.062761455928422   0.083333333411712
   0.132255515345201   0.396094789261755   0.083333333411712
   0.465588848678535   0.396094789261755   0.083333333411712
   0.798922182011868   0.396094789261755   0.083333333411712
   0.132255515345201   0.729428122595088   0.083333333411712
   0.465588848678535   0.729428122595088   0.083333333411712
   0.798922182011868   0.729428122595088   0.083333333411712
   0.132255515345201   0.062761455928422   0.416666666745045
   0.465588848678535   0.062761455928422   0.416666666745045
   0.798922182011868   0.062761455928422   0.416666666745045
   0.132255515345201   0.396094789261755   0.416666666745045
   0.465588848678535   0.396094789261755   0.416666666745045
   0.798922182011868   0.396094789261755   0.416666666745045
   0.132255515345201   0.729428122595088   0.416666666745045
   0.465588848678535   0.729428122595088   0.416666666745045
   0.798922182011868   0.729428122595088   0.416666666745045
   0.132255515345201   0.062761455928422   0.750000000078379
   0.465588848678535   0.062761455928422   0.750000000078379
   0.798922182011868   0.062761455928422   0.750000000078379
   0.132255515345201   0.396094789261755   0.750000000078379
   0.465588848678535   0.396094789261755   0.750000000078379
   0.798922182011868   0.396094789261755   0.750000000078379
   0.132255515345201   0.729428122595088   0.750000000078379
   0.465588848678535   0.729428122595088   0.750000000078379
   0.798922182011868   0.729428122595088   0.750000000078379
   0.201077818015115   0.270571877371838   0.249999999869774
   0.534411151348449   0.270571877371838   0.249999999869774
   0.867744484681782   0.270571877371838   0.249999999869774
   0.201077818015115   0.603905210705172   0.249999999869774
   0.534411151348449   0.603905210705172   0.249999999869774
   0.867744484681782   0.603905210705172   0.249999999869774
   0.201077818015115   0.937238544038505   0.249999999869774
   0.534411151348449   0.937238544038505   0.249999999869774
   0.867744484681782   0.937238544038505   0.249999999869774
   0.201077818015115   0.270571877371838   0.583333333203107
   0.534411151348449   0.270571877371838   0.583333333203107
   0.867744484681782   0.270571877371838   0.583333333203107
   0.201077818015115   0.603905210705172   0.583333333203107
   0.534411151348449   0.603905210705172   0.583333333203107
   0.867744484681782   0.603905210705172   0.583333333203107
   0.201077818015115   0.937238544038505   0.583333333203107
   0.534411151348449   0.937238544038505   0.583333333203107
   0.867744484681782   0.937238544038505   0.583333333203107
   0.201077818015115   0.270571877371838   0.916666666536440
   0.534411151348449   0.270571877371838   0.916666666536440
   0.867744484681782   0.270571877371838   0.916666666536440
   0.201077818015115   0.603905210705172   0.916666666536440
   0.534411151348449   0.603905210705172   0.916666666536440
   0.867744484681782   0.603905210705172   0.916666666536440
   0.201077818015115   0.937238544038505   0.916666666536440
   0.534411151348449   0.937238544038505   0.916666666536440
   0.867744484681782   0.937238544038505   0.916666666536440
   0.085057840221886   0.241089582797175   0.083333333342204
   0.418391173555219   0.241089582797175   0.083333333342204
   0.751724506888552   0.241089582797175   0.083333333342204
   0.085057840221886   0.574422916130509   0.083333333342204
   0.418391173555219   0.574422916130509   0.083333333342204
   0.751724506888552   0.574422916130509   0.083333333342204
   0.085057840221886   0.907756249463842   0.083333333342204
   0.418391173555219   0.907756249463842   0.083333333342204
   0.751724506888552   0.907756249463842   0.083333333342204
   0.085057840221886   0.241089582797175   0.416666666675537
   0.418391173555219   0.241089582797175   0.416666666675537
   0.751724506888552   0.241089582797175   0.416666666675537
   0.085057840221886   0.574422916130509   0.416666666675537
   0.418391173555219   0.574422916130509   0.416666666675537
   0.751724506888552   0.574422916130509   0.416666666675537
   0.085057840221886   0.907756249463842   0.416666666675537
   0.418391173555219   0.907756249463842   0.416666666675537
   0.751724506888552   0.907756249463842   0.416666666675537
   0.085057840221886   0.241089582797175   0.750000000008871
   0.418391173555219   0.241089582797175   0.750000000008871
   0.751724506888552   0.241089582797175   0.750000000008871
   0.085057840221886   0.574422916130509   0.750000000008871
   0.418391173555219   0.574422916130509   0.750000000008871
   0.751724506888552   0.574422916130509   0.750000000008871
   0.085057840221886   0.907756249463842   0.750000000008871
   0.418391173555219   0.907756249463842   0.750000000008871
   0.751724506888552   0.907756249463842   0.750000000008871
   0.248275493038707   0.092243750403166   0.250000000011659
   0.581608826372040   0.092243750403166   0.250000000011659
   0.914942159705374   0.092243750403166   0.250000000011659
   0.248275493038707   0.425577083736499   0.250000000011659
   0.581608826372040   0.425577083736499   0.250000000011659
   0.914942159705374   0.425577083736499   0.250000000011659
   0.248275493038707   0.758910417069833   0.250000000011659
   0.581608826372040   0.758910417069833   0.250000000011659
   0.914942159705374   0.758910417069833   0.250000000011659
   0.248275493038707   0.092243750403166   0.583333333344993
   0.581608826372040   0.092243750403166   0.583333333344993
   0.914942159705374   0.092243750403166   0.583333333344993
   0.248275493038707   0.425577083736499   0.583333333344993
   0.581608826372040   0.425577083736499   0.583333333344993
   0.914942159705374   0.425577083736499   0.583333333344993
   0.248275493038707   0.758910417069833   0.583333333344993
   0.581608826372040   0.758910417069833   0.583333333344993
   0.914942159705374   0.758910417069833   0.583333333344993
   0.248275493038707   0.092243750403166   0.916666666678326
   0.581608826372040   0.092243750403166   0.916666666678326
   0.914942159705374   0.092243750403166   0.916666666678326
   0.248275493038707   0.425577083736499   0.916666666678326
   0.581608826372040   0.425577083736499   0.916666666678326
   0.914942159705374   0.425577083736499   0.916666666678326
   0.248275493038707   0.758910417069833   0.916666666678326
   0.581608826372040   0.758910417069833   0.916666666678326
   0.914942159705374   0.758910417069833   0.916666666678326
   0.254717238367995   0.093710262645132   0.083333333337080
   0.588050571701328   0.093710262645132   0.083333333337080
   0.921383905034662   0.093710262645132   0.083333333337080
   0.254717238367995   0.427043595978465   0.083333333337080
   0.588050571701328   0.427043595978465   0.083333333337080
   0.921383905034662   0.427043595978465   0.083333333337080
   0.254717238367995   0.760376929311799   0.083333333337080
   0.588050571701328   0.760376929311799   0.083333333337080
   0.921383905034662   0.760376929311799   0.083333333337080
   0.254717238367995   0.093710262645132   0.416666666670413
   0.588050571701328   0.093710262645132   0.416666666670413
   0.921383905034662   0.093710262645132   0.416666666670413
   0.254717238367995   0.427043595978465   0.416666666670413
   0.588050571701328   0.427043595978465   0.416666666670413
   0.921383905034662   0.427043595978465   0.416666666670413
   0.254717238367995   0.760376929311799   0.416666666670413
   0.588050571701328   0.760376929311799   0.416666666670413
   0.921383905034662   0.760376929311799   0.416666666670413
   0.254717238367995   0.093710262645132   0.750000000003747
   0.588050571701328   0.093710262645132   0.750000000003747
   0.921383905034662   0.093710262645132   0.750000000003747
   0.254717238367995   0.427043595978465   0.750000000003747
   0.588050571701328   0.427043595978465   0.750000000003747
   0.921383905034662   0.427043595978465   0.750000000003747
   0.254717238367995   0.760376929311799   0.750000000003747
   0.588050571701328   0.760376929311799   0.750000000003747
   0.921383905034662   0.760376929311799   0.750000000003747
   0.078616095023180   0.239623070738147   0.249999999999446
   0.411949428356513   0.239623070738147   0.249999999999446
   0.745282761689846   0.239623070738147   0.249999999999446
   0.078616095023180   0.572956404071480   0.249999999999446
   0.411949428356513   0.572956404071480   0.249999999999446
   0.745282761689846   0.572956404071480   0.249999999999446
   0.078616095023180   0.906289737404813   0.249999999999446
   0.411949428356513   0.906289737404813   0.249999999999446
   0.745282761689846   0.906289737404813   0.249999999999446
   0.078616095023180   0.239623070738147   0.583333333332780
   0.411949428356513   0.239623070738147   0.583333333332780
   0.745282761689846   0.239623070738147   0.583333333332780
   0.078616095023180   0.572956404071480   0.583333333332780
   0.411949428356513   0.572956404071480   0.583333333332780
   0.745282761689846   0.572956404071480   0.583333333332780
   0.078616095023180   0.906289737404813   0.583333333332780
   0.411949428356513   0.906289737404813   0.583333333332780
   0.745282761689846   0.906289737404813   0.583333333332780
   0.078616095023180   0.239623070738147   0.916666666666113
   0.411949428356513   0.239623070738147   0.916666666666113
   0.745282761689846   0.239623070738147   0.916666666666113
   0.078616095023180   0.572956404071480   0.916666666666113
   0.411949428356513   0.572956404071480   0.916666666666113
   0.745282761689846   0.572956404071480   0.916666666666113
   0.078616095023180   0.906289737404813   0.916666666666113
   0.411949428356513   0.906289737404813   0.916666666666113
   0.745282761689846   0.906289737404813   0.916666666666113
   0.030956141589795   0.301908182432691   0.083333333366932
   0.364289474923128   0.301908182432691   0.083333333366932
   0.697622808256461   0.301908182432691   0.083333333366932
   0.030956141589795   0.635241515766024   0.083333333366932
   0.364289474923128   0.635241515766024   0.083333333366932
   0.697622808256461   0.635241515766024   0.083333333366932
   0.030956141589795   0.968574849099358   0.083333333366932
   0.364289474923128   0.968574849099358   0.083333333366932
   0.697622808256461   0.968574849099358   0.083333333366932
   0.030956141589795   0.301908182432691   0.416666666700265
   0.364289474923128   0.301908182432691   0.416666666700265
   0.697622808256461   0.301908182432691   0.416666666700265
   0.030956141589795   0.635241515766024   0.416666666700265
   0.364289474923128   0.635241515766024   0.416666666700265
   0.697622808256461   0.635241515766024   0.416666666700265
   0.030956141589795   0.968574849099358   0.416666666700265
   0.364289474923128   0.968574849099358   0.416666666700265
   0.697622808256461   0.968574849099358   0.416666666700265
   0.030956141589795   0.301908182432691   0.750000000033598
   0.364289474923128   0.301908182432691   0.750000000033598
   0.697622808256461   0.301908182432691   0.750000000033598
   0.030956141589795   0.635241515766024   0.750000000033598
   0.364289474923128   0.635241515766024   0.750000000033598
   0.697622808256461   0.635241515766024   0.750000000033598
   0.030956141589795   0.968574849099358   0.750000000033598
   0.364289474923128   0.968574849099358   0.750000000033598
   0.697622808256461   0.968574849099358   0.750000000033598
   0.302377191604613   0.031425150974762   0.249999999988742
   0.635710524937947   0.031425150974762   0.249999999988742
   0.969043858271280   0.031425150974762   0.249999999988742
   0.302377191604613   0.364758484308096   0.249999999988742
   0.635710524937947   0.364758484308096   0.249999999988742
   0.969043858271280   0.364758484308096   0.249999999988742
   0.302377191604613   0.698091817641429   0.249999999988742
   0.635710524937947   0.698091817641429   0.249999999988742
   0.969043858271280   0.698091817641429   0.249999999988742
   0.302377191604613   0.031425150974762   0.583333333322076
   0.635710524937947   0.031425150974762   0.583333333322076
   0.969043858271280   0.031425150974762   0.583333333322076
   0.302377191604613   0.364758484308096   0.583333333322076
   0.635710524937947   0.364758484308096   0.583333333322076
   0.969043858271280   0.364758484308096   0.583333333322076
   0.302377191604613   0.698091817641429   0.583333333322076
   0.635710524937947   0.698091817641429   0.583333333322076
   0.969043858271280   0.698091817641429   0.583333333322076
   0.302377191604613   0.031425150974762   0.916666666655409
   0.635710524937947   0.031425150974762   0.916666666655409
   0.969043858271280   0.031425150974762   0.916666666655409
   0.302377191604613   0.364758484308096   0.916666666655409
   0.635710524937947   0.364758484308096   0.916666666655409
   0.969043858271280   0.364758484308096   0.916666666655409
   0.302377191604613   0.698091817641429   0.916666666655409
   0.635710524937947   0.698091817641429   0.916666666655409
   0.969043858271280   0.698091817641429   0.916666666655409
   0.295724502870617   0.131794101212924   0.083333333347698
   0.629057836203950   0.131794101212924   0.083333333347698
   0.962391169537284   0.131794101212924   0.083333333347698
   0.295724502870617   0.465127434546257   0.083333333347698
   0.629057836203950   0.465127434546257   0.083333333347698
   0.962391169537284   0.465127434546257   0.083333333347698
   0.295724502870617   0.798460767879591   0.083333333347698
   0.629057836203950   0.798460767879591   0.083333333347698
   0.962391169537284   0.798460767879591   0.083333333347698
   0.295724502870617   0.131794101212924   0.416666666681031
   0.629057836203950   0.131794101212924   0.416666666681031
   0.962391169537284   0.131794101212924   0.416666666681031
   0.295724502870617   0.465127434546257   0.416666666681031
   0.629057836203950   0.465127434546257   0.416666666681031
   0.962391169537284   0.465127434546257   0.416666666681031
   0.295724502870617   0.798460767879591   0.416666666681031
   0.629057836203950   0.798460767879591   0.416666666681031
   0.962391169537284   0.798460767879591   0.416666666681031
   0.295724502870617   0.131794101212924   0.750000000014364
   0.629057836203950   0.131794101212924   0.750000000014364
   0.962391169537284   0.131794101212924   0.750000000014364
   0.295724502870617   0.465127434546257   0.750000000014364
   0.629057836203950   0.465127434546257   0.750000000014364
   0.962391169537284   0.465127434546257   0.750000000014364
   0.295724502870617   0.798460767879591   0.750000000014364
   0.629057836203950   0.798460767879591   0.750000000014364
   0.962391169537284   0.798460767879591   0.750000000014364
   0.037608830508062   0.201539232135247   0.250000000062964
   0.370942163841396   0.201539232135247   0.250000000062964
   0.704275497174729   0.201539232135247   0.250000000062964
   0.037608830508062   0.534872565468581   0.250000000062964
   0.370942163841396   0.534872565468581   0.250000000062964
   0.704275497174729   0.534872565468581   0.250000000062964
   0.037608830508062   0.868205898801914   0.250000000062964
   0.370942163841396   0.868205898801914   0.250000000062964
   0.704275497174729   0.868205898801914   0.250000000062964
   0.037608830508062   0.201539232135247   0.583333333396297
   0.370942163841396   0.201539232135247   0.583333333396297
   0.704275497174729   0.201539232135247   0.583333333396297
   0.037608830508062   0.534872565468581   0.583333333396297
   0.370942163841396   0.534872565468581   0.583333333396297
   0.704275497174729   0.534872565468581   0.583333333396297
   0.037608830508062   0.868205898801914   0.583333333396297
   0.370942163841396   0.868205898801914   0.583333333396297
   0.704275497174729   0.868205898801914   0.583333333396297
   0.037608830508062   0.201539232135247   0.916666666729630
   0.370942163841396   0.201539232135247   0.916666666729630
   0.704275497174729   0.201539232135247   0.916666666729630
   0.037608830508062   0.534872565468581   0.916666666729630
   0.370942163841396   0.534872565468581   0.916666666729630
   0.704275497174729   0.534872565468581   0.916666666729630
   0.037608830508062   0.868205898801914   0.916666666729630
   0.370942163841396   0.868205898801914   0.916666666729630
   0.704275497174729   0.868205898801914   0.916666666729630
   0.123494252330824   0.199870662999527   0.083333333360872
   0.456827585664158   0.199870662999527   0.083333333360872
   0.790160918997491   0.199870662999527   0.083333333360872
   0.123494252330824   0.533203996332860   0.083333333360872
   0.456827585664158   0.533203996332860   0.083333333360872
   0.790160918997491   0.533203996332860   0.083333333360872
   0.123494252330824   0.866537329666194   0.083333333360872
   0.456827585664158   0.866537329666194   0.083333333360872
   0.790160918997491   0.866537329666194   0.083333333360872
   0.123494252330824   0.199870662999527   0.416666666694205
   0.456827585664158   0.199870662999527   0.416666666694205
   0.790160918997491   0.199870662999527   0.416666666694205
   0.123494252330824   0.533203996332860   0.416666666694205
   0.456827585664158   0.533203996332860   0.416666666694205
   0.790160918997491   0.533203996332860   0.416666666694205
   0.123494252330824   0.866537329666194   0.416666666694205
   0.456827585664158   0.866537329666194   0.416666666694205
   0.790160918997491   0.866537329666194   0.416666666694205
   0.123494252330824   0.199870662999527   0.750000000027539
   0.456827585664158   0.199870662999527   0.750000000027539
   0.790160918997491   0.199870662999527   0.750000000027539
   0.123494252330824   0.533203996332860   0.750000000027539
   0.456827585664158   0.533203996332860   0.750000000027539
   0.790160918997491   0.533203996332860   0.750000000027539
   0.123494252330824   0.866537329666194   0.750000000027539
   0.456827585664158   0.866537329666194   0.750000000027539
   0.790160918997491   0.866537329666194   0.750000000027539
   0.209839081009031   0.133462670328851   0.249999999981047
   0.543172414342365   0.133462670328851   0.249999999981047
   0.876505747675698   0.133462670328851   0.249999999981047
   0.209839081009031   0.466796003662185   0.249999999981047
   0.543172414342365   0.466796003662185   0.249999999981047
   0.876505747675698   0.466796003662185   0.249999999981047
   0.209839081009031   0.800129336995518   0.249999999981047
   0.543172414342365   0.800129336995518   0.249999999981047
   0.876505747675698   0.800129336995518   0.249999999981047
   0.209839081009031   0.133462670328851   0.583333333314380
   0.543172414342365   0.133462670328851   0.583333333314380
   0.876505747675698   0.133462670328851   0.583333333314380
   0.209839081009031   0.466796003662185   0.583333333314380
   0.543172414342365   0.466796003662185   0.583333333314380
   0.876505747675698   0.466796003662185   0.583333333314380
   0.209839081009031   0.800129336995518   0.583333333314380
   0.543172414342365   0.800129336995518   0.583333333314380
   0.876505747675698   0.800129336995518   0.583333333314380
   0.209839081009031   0.133462670328851   0.916666666647713
   0.543172414342365   0.133462670328851   0.916666666647713
   0.876505747675698   0.133462670328851   0.916666666647713
   0.209839081009031   0.466796003662185   0.916666666647713
   0.543172414342365   0.466796003662185   0.916666666647713
   0.876505747675698   0.466796003662185   0.916666666647713
   0.209839081009031   0.800129336995518   0.916666666647713
   0.543172414342365   0.800129336995518   0.916666666647713
   0.876505747675698   0.800129336995518   0.916666666647713
   0.193137188061484   0.038716367286757   0.083333333249633