 C  H  O 
 1.0000000000000000
    26.5714798454189847   -0.0000139652717460    0.0000004166982516
     0.0000062100444325   11.8157435427711697   -0.0000024468069160
    -0.0000003658289721    0.0000048307419108   23.3278747475647776
 C   H   O  
 192 384 192
Selective dynamics
Cartesian
  4.4762521287881629  2.7363730198626710  1.2229308016096219   T   T   T
 17.7619920514976002  2.7363660372267957  1.2229310099587474   T   T   T
  4.4762541988029776  6.6749542007864022  1.2229299860073168   T   T   T
 17.7619941215124122  6.6749472181505300  1.2229301943564430   T   T   T
  4.4762562688177825 10.6135353817101254  1.2229291704050125   T   T   T
 17.7619961915272242 10.6135283990742479  1.2229293787541349   T   T   T
  4.4762520373309158  2.7363742275481511  7.0548994885008227   T   T   T
 17.7619919600403762  2.7363672449122793  7.0548996968499456   T   T   T
  4.4762541073457323  6.6749554084718685  7.0548986728985179   T   T   T
 17.7619940300551882  6.6749484258359928  7.0548988812476452   T   T   T
  4.4762561773605425 10.6135365893955971  7.0548978572962167   T   T   T
 17.7619961000699753 10.6135296067597427  7.0548980656453386   T   T   T
  4.4762519458736652  2.7363754352336316 12.8868681753920118   T   T   T
 17.7619918685830882  2.7363684525977554 12.8868683837411293   T   T   T
  4.4762540158884887  6.6749566161573481 12.8868673597896954   T   T   T
 17.7619939385979180  6.6749496335214804 12.8868675681388272   T   T   T
  4.4762560859032936 10.6135377970810829 12.8868665441873862   T   T   T
 17.7619960086127193 10.6135308144452125 12.8868667525365197   T   T   T
  4.4762518544164287  2.7363766429191045 18.7188368622830943   T   T   T
 17.7619917771258855  2.7363696602832315 18.7188370706322083   T   T   T
  4.4762539244312496  6.6749578238428287 18.7188360466807850   T   T   T
 17.7619938471407011  6.6749508412069547 18.7188362550299274   T   T   T
  4.4762559944460483 10.6135390047665528 18.7188352310784580   T   T   T
 17.7619959171554989 10.6135320221306735 18.7188354394275933   T   T   T
  8.8094881368640845  1.2022210754886649  4.1389155307019161   T   T   T
 22.0952280595735893  1.2022140928527911  4.1389157390510452   T   T   T
  8.8094902068789018  5.1408022564124014  4.1389147150996131   T   T   T
 22.0952301295883800  5.1407952737765248  4.1389149234487359   T   T   T
  8.8094922768937085  9.0793834373360767  4.1389138994973100   T   T   T
 22.0952321996032168  9.0793764547002045  4.1389141078464329   T   T   T
  8.8094880454068409  1.2022222831741443  9.9708842175930794   T   T   T
 22.0952279681163368  1.2022153005382714  9.9708844259422129   T   T   T
  8.8094901154216458  5.1408034640978775  9.9708834019907773   T   T   T
 22.0952300381311559  5.1407964814620097  9.9708836103399054   T   T   T
  8.8094921854364490  9.0793846450215714  9.9708825863884734   T   T   T
 22.0952321081459822  9.0793776623856921  9.9708827947375909   T   T   T
  8.8094879539496063  1.2022234908596205 15.8028529044843182   T   T   T
 22.0952278766590915  1.2022165082237464 15.8028531128334446   T   T   T
  8.8094900239644094  5.1408046717833527 15.8028520888820161   T   T   T
 22.0952299466738999  5.1407976891474760 15.8028522972311443   T   T   T
  8.8094920939792232  9.0793858527070359 15.8028512732797157   T   T   T
 22.0952320166887191  9.0793788700711549 15.8028514816288421   T   T   T
  8.8094878624923414  1.2022246985450973 21.6348215913754132   T   T   T
 22.0952277852018639  1.2022177159092255 21.6348217997245236   T   T   T
  8.8094899325071481  5.1408058794688323 21.6348207757731004   T   T   T
 22.0952298552166582  5.1407988968329628 21.6348209841221966   T   T   T
  8.8094920025219672  9.0793870603925129 21.6348199601707840   T   T   T
 22.0952319252314666  9.0793800777566354 21.6348201685199335   T   T   T
 11.1191223188412369  3.1715098482253024  1.2229308156752263   T   T   T
 24.4048622415507701  3.1715028655894324  1.2229310240243534   T   T   T
 11.1191243888560436  7.1100910291490491  1.2229300000729220   T   T   T
 24.4048643115655750  7.1100840465131787  1.2229302084220481   T   T   T
 11.1191264588708592 11.0486722100727697  1.2229291844706167   T   T   T
 24.4048663815803906 11.0486652274369117  1.2229293928197420   T   T   T
 11.1191222273839863  3.1715110559107855  7.0548995025664230   T   T   T
 24.4048621500935461  3.1715040732749160  7.0548997109155573   T   T   T
 11.1191242973988196  7.1100922368345190  7.0548986869641244   T   T   T
 24.4048642201083581  7.1100852541986468  7.0548988953132454   T   T   T
 11.1191263674136085 11.0486734177582697  7.0548978713618187   T   T   T
 24.4048662901231594 11.0486664351223816  7.0548980797109424   T   T   T
 11.1191221359267534  3.1715122635962660 12.8868681894576085   T   T   T
 24.4048620586362581  3.1715052809603925 12.8868683978067420   T   T   T
 11.1191242059415760  7.1100934445200021 12.8868673738553117   T   T   T
 24.4048641286510843  7.1100864618841291 12.8868675822044292   T   T   T
 11.1191262759563951 11.0486746254437378 12.8868665582529971   T   T   T
 24.4048661986658928 11.0486676428078656 12.8868667666021217   T   T   T
 11.1191220444695134  3.1715134712817381 18.7188368763486821   T   T   T
 24.4048619671790519  3.1715064886458664 18.7188370846978138   T   T   T
 11.1191241144843325  7.1100946522054747 18.7188360607463906   T   T   T
 24.4048640371938639  7.1100876695696060 18.7188362690955259   T   T   T
 11.1191261844991338 11.0486758331292076 18.7188352451440672   T   T   T
 24.4048661072086865 11.0486688504933337 18.7188354534931953   T   T   T
  2.1666179468110727  0.7670842471260247  4.1389155166363159   T   T   T
 15.4523578695205792  0.7670772644901520  4.1389157249854431   T   T   T
  2.1666200168258869  4.7056654280497394  4.1389147010340110   T   T   T
 15.4523599395353806  4.7056584454138726  4.1389149093831366   T   T   T
  2.1666220868406998  8.6442466089734395  4.1389138854317018   T   T   T
 15.4523620095501961  8.6442396263375709  4.1389140937808362   T   T   T
  2.1666178553538309  0.7670854548115025  9.9708842035274774   T   T   T
 15.4523577780633161  0.7670784721756289  9.9708844118766038   T   T   T
  2.1666199253686402  4.7056666357352164  9.9708833879251699   T   T   T
 15.4523598480781370  4.7056596530993451  9.9708835962742945   T   T   T
  2.1666219953834549  8.6442478166589272  9.9708825723228678   T   T   T
 15.4523619180929401  8.6442408340230479  9.9708827806720013   T   T   T
  2.1666177638965896  0.7670866624969803 15.8028528904187180   T   T   T
 15.4523576866060832  0.7670796798611075 15.8028530987678426   T   T   T
  2.1666198339114002  4.7056678434206924 15.8028520748164105   T   T   T
 15.4523597566208934  4.7056608607848194 15.8028522831655316   T   T   T
  2.1666219039262100  8.6442490243443970 15.8028512592141084   T   T   T
 15.4523618266357019  8.6442420417085231 15.8028514675632312   T   T   T
  2.1666176724393473  0.7670878701824582 21.6348215773098076   T   T   T
 15.4523575951488272  0.7670808875465848 21.6348217856589393   T   T   T
  2.1666197424541580  4.7056690511061747 21.6348207617075019   T   T   T
 15.4523596651636392  4.7056620684702981 21.6348209700566301   T   T   T
  2.1666218124689687  8.6442502320298740 21.6348199461052069   T   T   T
 15.4523617351784512  8.6442432493939929 21.6348201544543244   T   T   T
  5.4644346392810457  2.4265664459505172  2.3178573648178982   T   T   T
 18.7501745619905087  2.4265594633146459  2.3178575731670232   T   T   T
  5.4644367092958648  6.3651476268742559  2.3178565492155938   T   T   T
 18.7501766320053100  6.3651406442383820  2.3178567575647211   T   T   T
  5.4644387793106661 10.3037288077979756  2.3178557336132890   T   T   T
 18.7501787020201434 10.3037218251621052  2.3178559419624127   T   T   T
  5.4644345478238003  2.4265676536359986  8.1498260517090291   T   T   T
 18.7501744705332243  2.4265606710001242  8.1498262600581608   T   T   T
  5.4644366178386115  6.3651488345597222  8.1498252361067323   T   T   T
 18.7501765405480150  6.3651418519238518  8.1498254444558604   T   T   T
  5.4644386878534181 10.3037300154834561  8.1498244205044212   T   T   T
 18.7501786105628625 10.3037230328475804  8.1498246288535601   T   T   T
  5.4644344563665657  2.4265688613214738 13.9817947386002785   T   T   T
 18.7501743790759825  2.4265618786856007 13.9817949469493943   T   T   T
  5.4644365263813706  6.3651500422452116 13.9817939229979551   T   T   T
 18.7501764490907732  6.3651430596093368 13.9817941313470921   T   T   T
  5.4644385963961835 10.3037312231689331 13.9817931073956618   T   T   T
 18.7501785191056349 10.3037242405330662 13.9817933157447847   T   T   T
  5.4644343649093159  2.4265700690069503 19.8137634254914126   T   T   T
 18.7501742876187336  2.4265630863710781 19.8137636338405407   T   T   T
  5.4644364349241270  6.3651512499306868 19.8137626098890891   T   T   T
 18.7501763576335208  6.3651442672948155 19.8137628182382208   T   T   T
  5.4644385049389372 10.3037324308544083 19.8137617942868083   T   T   T
 18.7501784276483612 10.3037254482185343 19.8137620026359258   T   T   T
  7.8213055920298880  1.5120281028760896  5.2338419346069998   T   T   T
 21.1070455147393155  1.5120211202402183  5.2338421429561341   T   T   T
  7.8213076620447026  5.4506092837998166  5.2338411190047012   T   T   T
 21.1070475847541630  5.4506023011639400  5.2338413273538249   T   T   T
  7.8213097320595057  9.3891904647235211  5.2338403034023973   T   T   T
 21.1070496547689395  9.3891834820876454  5.2338405117515148   T   T   T
  7.8213055005726471  1.5120293105615690 11.0658106214981640   T   T   T
 21.1070454232820808  1.5120223279256959 11.0658108298472939   T   T   T
  7.8213075705874608  5.4506104914852873 11.0658098058958512   T   T   T
 21.1070474932969319  5.4506035088494196 11.0658100142449864   T   T   T
  7.8213096406022640  9.3891916724090034 11.0658089902935544   T   T   T
 21.1070495633116977  9.3891846897731330 11.0658091986426790   T   T   T
  7.8213054091154026  1.5120305182470481 16.8977793083893566   T   T   T
 21.1070453318248141  1.5120235356111733 16.8977795167384564   T   T   T
  7.8213074791302111  5.4506116991707740 16.8977784927870438   T   T   T
 21.1070474018396581  5.4506047165348983 16.8977787011361755   T   T   T
  7.8213095491450204  9.3891928800944644 16.8977776771847275   T   T   T
 21.1070494718544452  9.3891858974585940 16.8977778855338485   T   T   T
  7.8213053176581617  1.5120317259325249 22.7297479952805439   T   T   T
 21.1070452403676150  1.5120247432966527 22.7297482036296543   T   T   T
  7.8213073876729711  5.4506129068562421 22.7297471796782240   T   T   T
 21.1070473103824305  5.4506059242203744 22.7297473880273699   T   T   T
  7.8213094576877733  9.3891940877799485 22.7297463640759325   T   T   T
 21.1070493803972177  9.3891871051440763 22.7297465724250536   T   T   T
 12.1073051549862232  3.4813158368870050  2.3178572505739905   T   T   T
 25.3930450776957635  3.4813088542511319  2.3178574589231182   T   T   T
 12.1073072250010352  7.4198970178107384  2.3178564349716888   T   T   T
 25.3930471477105648  7.4198900351748707  2.3178566433208152   T   T   T
 12.1073092950158383 11.3584781987344599  2.3178556193693836   T   T   T
 25.3930492177253733 11.3584712160985948  2.3178558277185095   T   T   T
 12.1073050635289956  3.4813170445724864  8.1498259374651401   T   T   T
 25.3930449862385110  3.4813100619366129  8.1498261458142451   T   T   T
 12.1073071335438023  7.4198982254962145  8.1498251218628166   T   T   T
 25.3930470562533124  7.4198912428603441  8.1498253302119590   T   T   T
 12.1073092035586161 11.3584794064199333  8.1498243062605127   T   T   T
 25.3930491262681244 11.3584724237840700  8.1498245146096409   T   T   T
 12.1073049720717467  3.4813182522579629 13.9817946243563576   T   T   T
 25.3930448947812444  3.4813112696220889 13.9817948327054786   T   T   T
 12.1073070420865445  7.4198994331816923 13.9817938087540661   T   T   T
 25.3930469647960777  7.4198924505458201 13.9817940171031694   T   T   T
 12.1073091121013725 11.3584806141054280 13.9817929931517551   T   T   T
 25.3930490348109004 11.3584736314695629 13.9817932015008690   T   T   T
 12.1073048806145049  3.4813194599434394 19.8137633112474738   T   T   T
 25.3930448033240062  3.4813124773075632 19.8137635195966126   T   T   T
 12.1073069506293169  7.4199006408671764 19.8137624956452001   T   T   T
 25.3930468733388075  7.4198936582312998 19.8137627039943141   T   T   T
 12.1073090206441361 11.3584818217908943 19.8137616800428802   T   T   T
 25.3930489433536373 11.3584748391550310 19.8137618883920084   T   T   T
  1.1784350763247269  0.4572787119396023  5.2338420488509163   T   T   T
 14.4641749990342188  0.4572717293037296  5.2338422572000454   T   T   T
  1.1784371463395391  4.3958598928633110  5.2338412332486097   T   T   T
 14.4641770690490503  4.3958529102274451  5.2338414415977361   T   T   T
  1.1784392163543496  8.3344410737870209  5.2338404176463094   T   T   T
 14.4641791390638517  8.3344340911511470  5.2338406259954340   T   T   T
  1.1784349848674818  0.4572799196250802 11.0658107357420672   T   T   T
 14.4641749075769734  0.4572729369892071 11.0658109440911829   T   T   T
  1.1784370548822958  4.3958611005487853 11.0658099201397491   T   T   T
 14.4641769775917943  4.3958541179129105 11.0658101284888843   T   T   T
  1.1784391248971047  8.3344422814724961 11.0658091045374487   T   T   T
 14.4641790476065992  8.3344352988366186 11.0658093128865715   T   T   T
  1.1784348934102404  0.4572811273105581 16.8977794226332456   T   T   T
 14.4641748161197281  0.4572741446746850 16.8977796309823631   T   T   T
  1.1784369634250522  4.3958623082342712 16.8977786070309577   T   T   T
 14.4641768861345490  4.3958553255984052 16.8977788153800752   T   T   T
  1.1784390334398627  8.3344434891579606 16.8977777914286413   T   T   T
 14.4641789561493468  8.3344365065220920 16.8977779997777731   T   T   T
  1.1784348019529973  0.4572823349960357 22.7297481095244542   T   T   T
 14.4641747246624810  0.4572753523601624 22.7297483178735682   T   T   T
  1.1784368719678096  4.3958635159197454 22.7297472939221450   T   T   T
 14.4641767946773090  4.3958565332838688 22.7297475022712696   T   T   T
  1.1784389419826204  8.3344446968434447 22.7297464783198322   T   T   T
 14.4641788646921121  8.3344377142075690 22.7297466866689604   T   T   T
  4.2966947171697578  3.7055328468559541  5.3865381186450350   T   T   T
 17.5824346398791818  3.7055258642200801  5.3865383269941622   T   T   T
  4.2966967871845636  7.6441140277796915  5.3865373030427302   T   T   T
 17.5824367098939511  7.6441070451438176  5.3865375113918557   T   T   T
  4.2966988571993836 11.5826952087033863  5.3865364874404262   T   T   T
 17.5824387799087845 11.5826882260675177  5.3865366957895491   T   T   T
  4.2966946257125063  3.7055340545414319 11.2185068055361796   T   T   T
 17.5824345484219009  3.7055270719055566 11.2185070138853007   T   T   T
  4.2966966957273209  7.6441152354651614 11.2185059899338722   T   T   T
 17.5824366184367058  7.6441082528292892 11.2185061982829986   T   T   T
  4.2966987657421365 11.5826964163888899 11.2185051743315647   T   T   T
 17.5824386884515356 11.5826894337530213 11.2185053826806911   T   T   T
  4.2966945342552778  3.7055352622269080 17.0504754924273669   T   T   T
 17.5824344569646591  3.7055282795910376 17.0504757007764809   T   T   T
  4.2966966042700818  7.6441164431506419 17.0504746768250648   T   T   T
 17.5824365269794392  7.6441094605147679 17.0504748851741716   T   T   T
  4.2966986742849009 11.5826976240743651 17.0504738612227200   T   T   T
 17.5824385969942725 11.5826906414384965 17.0504740695718660   T   T   T
  4.2966944427980325  3.7055364699123872 22.8824441793185613   T   T   T
 17.5824343655074138  3.7055294872765137 22.8824443876676753   T   T   T
  4.2966965128128365  7.6441176508361224 22.8824433637162343   T   T   T
 17.5824364355222151  7.6441106682002466 22.8824435720653767   T   T   T
  4.2966985828276556 11.5826988317598349 22.8824425481139393   T   T   T
 17.5824385055370342 11.5826918491239486 22.8824427564630746   T   T   T
  8.9890455093519179  0.2330617652115982  2.4705545678651610   T   T   T
 22.2747854320613961  0.2330547825757252  2.4705547762142874   T   T   T
  8.9890475793667157  4.1716429461353064  2.4705537522628545   T   T   T
 22.2747875020762365  4.1716359634994387  2.4705539606119800   T   T   T
  8.9890496493815331  8.1102241270590039  2.4705529366605496   T   T   T
 22.2747895720910236  8.1102171444231477  2.4705531450096752   T   T   T
  8.9890454178946690  0.2330629728970756  8.3025232547562826   T   T   T
 22.2747853406041685  0.2330559902612027  8.3025234631054197   T   T   T
  8.9890474879094668  4.1716441538207878  8.3025224391539840   T   T   T
 22.2747874106189805  4.1716371711849103  8.3025226475031104   T   T   T
  8.9890495579242842  8.1102253347444826  8.3025216235516712   T   T   T
 22.2747894806337854  8.1102183521086157  8.3025218319007958   T   T   T
  8.9890453264374148  0.2330641805825535 14.1344919416475268   T   T   T
 22.2747852491469231  0.2330571979466807 14.1344921499966567   T   T   T
  8.9890473964522197  4.1716453615062630 14.1344911260452157   T   T   T
 22.2747873191617174  4.1716383788703926 14.1344913343943421   T   T   T
  8.9890494664670246  8.1102265424299720 14.1344903104429171   T   T   T
 22.2747893891765081  8.1102195597941016 14.1344905187920400   T   T   T
  8.9890452349801837  0.2330653882680312 19.9664606285386661   T   T   T
 22.2747851576896849  0.2330584056321583 19.9664608368877765   T   T   T
  8.9890473049949886  4.1716465691917426 19.9664598129363462   T   T   T
 22.2747872277044721  4.1716395865558669 19.9664600212854815   T   T   T
  8.9890493750098130  8.1102277501154383 19.9664589973340547   T   T   T
 22.2747892977192983  8.1102207674795679 19.9664592056831687   T   T   T
 10.9395638884939412  2.2023519343754931  5.3865385340979257   T   T   T
 24.2253038112035064  2.2023449517396188  5.3865387424470468   T   T   T
 10.9395659585087586  6.1409331152992319  5.3865377184956236   T   T   T
 24.2253058812183113  6.1409261326633615  5.3865379268447455   T   T   T
 10.9395680285235688 10.0795142962229534  5.3865369028933134   T   T   T
 24.2253079512331126 10.0795073135870936  5.3865371112424416   T   T   T
 10.9395637970366888  2.2023531420609705 11.2185072209890606   T   T   T
 24.2253037197462540  2.2023461594250988 11.2185074293381870   T   T   T
 10.9395658670515221  6.1409343229847071 11.2185064053867567   T   T   T
 24.2253057897610518  6.1409273403488349 11.2185066137358902   T   T   T
 10.9395679370663199 10.0795155039084587 11.2185055897844546   T   T   T
 24.2253078597758496 10.0795085212725812 11.2185057981335721   T   T   T
 10.9395637055794417  2.2023543497464475 17.0504759078802621   T   T   T
 24.2253036282889873  2.2023473671105744 17.0504761162293796   T   T   T
 10.9395657755942750  6.1409355306701903 17.0504750922779493   T   T   T
 24.2253056983038100  6.1409285480343074 17.0504753006270953   T   T   T
 10.9395678456090835 10.0795167115939304 17.0504742766756401   T   T   T
 24.2253077683185971 10.0795097289580529 17.0504744850247754   T   T   T
 10.9395636141222106  2.2023555574319245 22.8824445947714743   T   T   T
 24.2253035368317562  2.2023485747960510 22.8824448031205954   T   T   T
 10.9395656841370421  6.1409367383556708 22.8824437791691331   T   T   T
 24.2253056068465469  6.1409297557197986 22.8824439875182684   T   T   T
 10.9395677541518417 10.0795179192793896 22.8824429635668345   T   T   T
 24.2253076768613589 10.0795109366435298 22.8824431719159485   T   T   T
  2.3461763380277838  1.7362426776920468  2.4705541524122716   T   T   T
 15.6319162607372864  1.7362356950561739  2.4705543607613931   T   T   T
  2.3461784080425909  5.6748238586157775  2.4705533368099633   T   T   T
 15.6319183307521037  5.6748168759799062  2.4705535451590879   T   T   T
  2.3461804780574043  9.6134050395394688  2.4705525212076553   T   T   T
 15.6319204007668926  9.6133980569035913  2.4705527295567835   T   T   T
  2.3461762465705407  1.7362438853775237  8.3025228393033927   T   T   T
 15.6319161692800357  1.7362369027416507  8.3025230476525174   T   T   T
  2.3461783165853514  5.6748250663012501  8.3025220237010888   T   T   T
 15.6319182392948459  5.6748180836653859  8.3025222320502152   T   T   T
  2.3461803866001638  9.6134062472249457  8.3025212080987867   T   T   T
 15.6319203093096544  9.6133992645890682  8.3025214164479060   T   T   T
  2.3461761551132980  1.7362450930630011 14.1344915261946351   T   T   T
 15.6319160778227868  1.7362381104271287 14.1344917345437615   T   T   T
  2.3461782251281047  5.6748262739867368 14.1344907105923330   T   T   T
 15.6319181478375953  5.6748192913508611 14.1344909189414576   T   T   T
  2.3461802951429194  9.6134074549104227 14.1344898949900237   T   T   T
 15.6319202178523948  9.6134004722745541 14.1344901033391448   T   T   T
  2.3461760636560540  1.7362463007484796 19.9664602130857922   T   T   T
 15.6319159863655539  1.7362393181126061 19.9664604214349346   T   T   T
  2.3461781336708620  5.6748274816722049 19.9664593974834830   T   T   T
 15.6319180563803659  5.6748204990363371 19.9664596058326325   T   T   T
  2.3461802036856771  9.6134086625958979 19.9664585818811844   T   T   T
 15.6319201263951619  9.6134016799600257 19.9664587902303019   T   T   T
  4.9736987684235396  1.8838941800497384  3.1218871007280327   T   T   T
 18.2594386911329849  1.8838871974138673  3.1218873090771577   T   T   T
  4.9737008384383561  5.8224753609734607  3.1218862851257243   T   T   T
 18.2594407611478005  5.8224683783375903  3.1218864934748516   T   T   T
  4.9737029084531699  9.7610565418971547  3.1218854695234226   T   T   T
 18.2594428311625947  9.7610495592612736  3.1218856778725455   T   T   T
  4.9736986769663005  1.8838953877352147  8.9538557876191582   T   T   T
 18.2594385996757289  1.8838884050993423  8.9538559959682917   T   T   T
  4.9737007469811170  5.8224765686589279  8.9538549720168596   T   T   T
 18.2594406696905764  5.8224695860230584  8.9538551803659789   T   T   T
  4.9737028169959210  9.7610577495826405  8.9538541564145486   T   T   T
 18.2594427397053316  9.7610507669467648  8.9538543647636804   T   T   T
  4.9736985855090543  1.8838965954206914 14.7858244745103988   T   T   T
 18.2594385082184871  1.8838896127848184 14.7858246828595199   T   T   T
  4.9737006555238787  5.8224777763444084 14.7858236589080914   T   T   T
 18.2594405782333133  5.8224707937085443 14.7858238672572302   T   T   T
  4.9737027255386845  9.7610589572681157 14.7858228433057857   T   T   T
 18.2594426482480969  9.7610519746322453 14.7858230516549138   T   T   T
  4.9736984940518187  1.8838978031061686 20.6177931614014689   T   T   T
 18.2594384167612347  1.8838908204702962 20.6177933697505900   T   T   T
  4.9737005640666272  5.8224789840298898 20.6177923457991596   T   T   T
 18.2594404867760538  5.8224720013940168 20.6177925541483020   T   T   T
  4.9737026340814436  9.7610601649535980 20.6177915301968504   T   T   T
 18.2594425567908551  9.7610531823177240 20.6177917385459750   T   T   T
  8.3120415291268763  2.0546994940886893  0.2059027742639723   T   T   T
 21.5977814518363829  2.0546925114528203  0.2059029826130983   T   T   T
  8.3120435991416954  5.9932806750124286  0.2059019586616671   T   T   T
 21.5977835218511700  5.9932736923765528  0.2059021670107929   T   T   T
  8.3120456691565039  9.9318618559361251  0.2059011430593618   T   T   T
 21.5977855918659998  9.9318548733002530  0.2059013514084875   T   T   T
  8.3120414376696345  2.0547007017741703  6.0378714611551567   T   T   T
 21.5977813603791091  2.0546937191382955  6.0378716695042876   T   T   T
  8.3120435076844537  5.9932818826979046  6.0378706455528555   T   T   T
 21.5977834303939389  5.9932749000620351  6.0378708539019783   T   T   T
  8.3120455776992639  9.9318630636216092  6.0378698299505498   T   T   T
 21.5977855004087544  9.9318560809857352  6.0378700382996682   T   T   T
  8.3120413462124016  2.0547019094596477 11.8698401480463165   T   T   T
 21.5977812689218922  2.0546949268237742 11.8698403563954393   T   T   T
  8.3120434162272137  5.9932830903833816 11.8698393324440019   T   T   T
 21.5977833389366900  5.9932761077475094 11.8698395407931265   T   T   T
  8.3120454862420186  9.9318642713070879 11.8698385168416927   T   T   T
 21.5977854089515162  9.9318572886712211 11.8698387251908120   T   T   T
  8.3120412547551545  2.0547031171451238 17.7018088349373990   T   T   T
 21.5977811774646717  2.0546961345092516 17.7018090432865272   T   T   T
  8.3120433247699719  5.9932842980688612 17.7018080193351004   T   T   T
 21.5977832474794589  5.9932773154329899 17.7018082276842215   T   T   T
  8.3120453947847821  9.9318654789925649 17.7018072037327769   T   T   T
 21.5977853174942815  9.9318584963566980 17.7018074120819300   T   T   T
 11.6165677845429141  0.0854077706968206  3.1218875773328540   T   T   T
 24.9023077072524543  0.0854007880609476  3.1218877856819804   T   T   T
 11.6165698545577261  4.0239889516205345  3.1218867617305488   T   T   T
 24.9023097772672735  4.0239819689846623  3.1218869700796725   T   T   T
 11.6165719245725398  7.9625701325442915  3.1218859461282449   T   T   T
 24.9023118472820926  7.9625631499084122  3.1218861544773695   T   T   T
 11.6165676930856634  0.0854089783822983  8.9538562642240045   T   T   T
 24.9023076157952303  0.0854019957464253  8.9538564725731291   T   T   T
 11.6165697631004754  4.0239901593060043  8.9538554486216881   T   T   T
 24.9023096858100423  4.0239831766701295  8.9538556569708234   T   T   T
 11.6165718331152892  7.9625713402297578  8.9538546330193913   T   T   T
 24.9023117558248650  7.9625643575938874  8.9538548413685213   T   T   T
 11.6165676016284092  0.0854101860677760 14.7858249511152398   T   T   T
 24.9023075243379957  0.0854032034319030 14.7858251594643786   T   T   T
 11.6165696716432283  4.0239913669914902 14.7858241355129447   T   T   T
 24.9023095943528006  4.0239843843556109 14.7858243438620605   T   T   T
 11.6165717416580492  7.9625725479152383 14.7858233199106213   T   T   T
 24.9023116643675735  7.9625655652793688 14.7858235282597565   T   T   T
 11.6165675101711710  0.0854113937532538 20.6177936380062938   T   T   T
 24.9023074328807503  0.0854044111173807 20.6177938463554256   T   T   T
 11.6165695801859723  4.0239925746769618 20.6177928224040201   T   T   T
 24.9023095028955410  4.0239855920410923 20.6177930307531128   T   T   T
 11.6165716502008110  7.9625737556007161 20.6177920068016824   T   T   T
 24.9023115729103388  7.9625667729648466 20.6177922151508177   T   T   T
  1.6691725130075783  3.8531859034416120  0.2059022976591493   T   T   T
 14.9549124357170591  3.8531789208057439  0.2059025060082753   T   T   T
  1.6691745830223876  7.7917670843653477  0.2059014820568441   T   T   T
 14.9549145057318640  7.7917601017294764  0.2059016904059700   T   T   T
  1.6691766530371976 11.7303482652890434  0.2059006664545386   T   T   T
 14.9549165757466813 11.7303412826531712  0.2059008748036646   T   T   T
  1.6691724215503370  3.8531871111270926  6.0378709845503407   T   T   T
 14.9549123442598351  3.8531801284912213  6.0378711928994635   T   T   T
  1.6691744915651452  7.7917682920508220  6.0378701689480341   T   T   T
 14.9549144142746204  7.7917613094149480  6.0378703772971596   T   T   T
  1.6691765615799563 11.7303494729745417  6.0378693533457222   T   T   T
 14.9549164842894360 11.7303424903386642  6.0378695616948548   T   T   T
  1.6691723300930927  3.8531883188125717 11.8698396714414773   T   T   T
 14.9549122528025826  3.8531813361766969 11.8698398797906108   T   T   T
  1.6691744001079016  7.7917694997363007 11.8698388558391734   T   T   T
 14.9549143228173840  7.7917625171004250 11.8698390641882927   T   T   T
  1.6691764701227143 11.7303506806600151 11.8698380402368731   T   T   T
 14.9549163928321942 11.7303436980241518 11.8698382485859977   T   T   T
  1.6691722386358503  3.8531895264980456 17.7018083583325812   T   T   T
 14.9549121613453337  3.8531825438621747 17.7018085666817093   T   T   T
  1.6691743086506574  7.7917707074217830 17.7018075427302612   T   T   T
 14.9549142313601546  7.7917637247859046 17.7018077510793894   T   T   T
  1.6691763786654690 11.7303518883454938 17.7018067271279627   T   T   T
 14.9549163013749755 11.7303449057096323 17.7018069354770837   T   T   T
  6.2769057103781920  1.8197773429479629  1.9087987101263155   T   T   T
 19.5626456330875946  1.8197703603120916  1.9087989184754401   T   T   T
  6.2769077803930040  5.7583585238716930  1.9087978945240083   T   T   T
 19.5626477031023995  5.7583515412358208  1.9087981028731340   T   T   T
  6.2769098504078089  9.6969397047954100  1.9087970789217037   T   T   T
 19.5626497731171582  9.6969327221595307  1.9087972872708288   T   T   T
  6.2769056189209405  1.8197785506334425  7.7407673970174979   T   T   T
 19.5626455416303315  1.8197715679975683  7.7407676053666270   T   T   T
  6.2769076889357525  5.7583597315571708  7.7407665814151949   T   T   T
 19.5626476116451755  5.7583527489213004  7.7407667897643186   T   T   T
  6.2769097589505600  9.6969409124808958  7.7407657658128883   T   T   T
 19.5626496816599520  9.6969339298450148  7.7407659741620147   T   T   T
  6.2769055274637005  1.8197797583189195 13.5727360839086710   T   T   T
 19.5626454501730933  1.8197727756830471 13.5727362922578010   T   T   T
  6.2769075974785151  5.7583609392426478 13.5727352683063707   T   T   T
 19.5626475201878982  5.7583539566067774 13.5727354766554917   T   T   T
  6.2769096674933156  9.6969421201663586 13.5727344527040561   T   T   T
 19.5626495902026925  9.6969351375304917 13.5727346610531932   T   T   T
  6.2769054360064596  1.8197809660043975 19.4047047707998175   T   T   T
 19.5626453587158409  1.8197739833685245 19.4047049791489385   T   T   T
  6.2769075060212725  5.7583621469281256 19.4047039551975153   T   T   T
 19.5626474287306706  5.7583551642922544 19.4047041635466435   T   T   T
  6.2769095760360782  9.6969433278518338 19.4047031395951919   T   T   T