 C  H 
        1.0000000000
  13.238117355340385   0.000000000000000   0.000000000000000
   0.000000000000000  13.238117355340385   0.000000000000000
   0.000000000000000   0.000000000000000   8.909959566469475
   80  128
 Direct
   0.495673649561498   0.495673842164880   0.201049215612429
   0.995673649561498   0.495673842164880   0.201049215612429
   0.495673649561498   0.995673842164880   0.201049215612429
   0.995673649561498   0.995673842164880   0.201049215612429
   0.481307677589752   0.090414986651618   0.100726232912878
   0.981307677589752   0.090414986651618   0.100726232912878
   0.481307677589752   0.590414986651619   0.100726232912878
   0.981307677589752   0.590414986651619   0.100726232912878
   0.075617780485136   0.104854066280525   0.999305522904579
   0.575617780485136   0.104854066280525   0.999305522904579
   0.075617780485136   0.604854066280526   0.999305522904579
   0.575617780485136   0.604854066280526   0.999305522904579
   0.010039637840059   0.400932700414529   0.100726242797126
   0.510039637840059   0.400932700414529   0.100726242797126
   0.010039637840059   0.900932700414529   0.100726242797126
   0.510039637840059   0.900932700414529   0.100726242797126
   0.386493492368514   0.075618064108235   0.000694298763786
   0.886493492368514   0.075618064108235   0.000694298763786
   0.386493492368514   0.575618064108235   0.000694298763786
   0.886493492368514   0.575618064108235   0.000694298763786
   0.090414807049804   0.010039804241699   0.899273812727083
   0.590414807049804   0.010039804241699   0.899273812727083
   0.090414807049804   0.510039804241699   0.899273812727083
   0.590414807049804   0.510039804241699   0.899273812727083
   0.415729535692358   0.386493613087153   0.999305514986317
   0.915729535692358   0.386493613087153   0.999305514986317
   0.415729535692358   0.886493613087153   0.999305514986317
   0.915729535692358   0.886493613087153   0.999305514986317
   0.104853815942744   0.415729604983041   0.000694322018027
   0.604853815942744   0.415729604983041   0.000694322018027
   0.104853815942744   0.915729604983041   0.000694322018027
   0.604853815942744   0.915729604983041   0.000694322018027
   0.400932518943822   0.481307865658509   0.899273795531435
   0.900932518943822   0.481307865658509   0.899273795531435
   0.400932518943822   0.981307865658509   0.899273795531435
   0.900932518943822   0.981307865658509   0.899273795531435
   0.495673663088806   0.495673840538108   0.798950810480264
   0.995673663088806   0.495673840538108   0.798950810480264
   0.495673663088806   0.995673840538108   0.798950810480264
   0.995673663088806   0.995673840538108   0.798950810480264
   0.245673641528138   0.245673814155879   0.298950646493438
   0.745673641528138   0.245673814155879   0.298950646493438
   0.245673641528138   0.745673814155879   0.298950646493438
   0.745673641528138   0.745673814155879   0.298950646493438
   0.245673628578388   0.245673839751324   0.701049052010964
   0.745673628578388   0.245673839751324   0.701049052010964
   0.245673628578388   0.745673839751325   0.701049052010964
   0.745673628578388   0.745673839751325   0.701049052010964
   0.260039613314240   0.340414963095925   0.399273616819874
   0.760039613314240   0.340414963095925   0.399273616819874
   0.260039613314240   0.840414963095925   0.399273616819874
   0.760039613314240   0.840414963095925   0.399273616819874
   0.340414767097492   0.231307845484832   0.600726068643462
   0.840414767097492   0.231307845484832   0.600726068643462
   0.340414767097492   0.731307845484832   0.600726068643462
   0.840414767097492   0.731307845484832   0.600726068643462
   0.231307654041726   0.150932672172427   0.399273628542657
   0.731307654041726   0.150932672172427   0.399273628542657
   0.231307654041726   0.650932672172427   0.399273628542657
   0.731307654041726   0.650932672172427   0.399273628542657
   0.150932491188672   0.260039797551354   0.600726044644268
   0.650932491188672   0.260039797551354   0.600726044644268
   0.150932491188672   0.760039797551354   0.600726044644268
   0.650932491188672   0.760039797551354   0.600726044644268
   0.165729528846306   0.354854062967905   0.500694322760086
   0.665729528846306   0.354854062967905   0.500694322760086
   0.165729528846306   0.854854062967905   0.500694322760086
   0.665729528846306   0.854854062967905   0.500694322760086
   0.354853792195014   0.325618056269676   0.499305537087213
   0.854853792195014   0.325618056269676   0.499305537087213
   0.354853792195014   0.825618056269676   0.499305537087213
   0.854853792195014   0.825618056269676   0.499305537087213
   0.325617748752402   0.136493587067493   0.500694330135812
   0.825617748752402   0.136493587067493   0.500694330135812
   0.325617748752402   0.636493587067493   0.500694330135812
   0.825617748752402   0.636493587067493   0.500694330135812
   0.136493474689765   0.165729583361945   0.499305531672577
   0.636493474689765   0.165729583361945   0.499305531672577
   0.136493474689765   0.665729583361945   0.499305531672577
   0.636493474689765   0.665729583361945   0.499305531672577
   0.061486564075123   0.005567867737436   0.274279284177187
   0.561486564075123   0.005567867737436   0.274279284177187
   0.061486564075123   0.505567867737436   0.274279284177187
   0.561486564075123   0.505567867737436   0.274279284177187
   0.471325308726700   0.157398404902261   0.171717597337566
   0.971325308726700   0.157398404902261   0.171717597337566
   0.471325308726700   0.657398404902261   0.171717597337566
   0.971325308726700   0.657398404902261   0.171717597337566
   0.142936672378978   0.117416878032289   0.068415113775643
   0.642936672378978   0.117416878032289   0.068415113775643
   0.142936672378978   0.617416878032289   0.068415113775643
   0.642936672378978   0.617416878032289   0.068415113775643
   0.066119713388094   0.172159505309186   0.928770055210392
   0.566119713388094   0.172159505309186   0.928770055210392
   0.066119713388094   0.672159505309186   0.928770055210392
   0.566119713388094   0.672159505309186   0.928770055210392
   0.429860752913060   0.485779807975668   0.274279280847151
   0.929860752913060   0.485779807975668   0.274279280847151
   0.429860752913060   0.985779807975668   0.274279280847151
   0.929860752913060   0.985779807975668   0.274279280847151
   0.020022004487628   0.333949269847982   0.171717597311173
   0.520022004487628   0.333949269847982   0.171717597311173
   0.020022004487628   0.833949269847982   0.171717597311173
   0.520022004487628   0.833949269847982   0.171717597311173
   0.373931172697240   0.142936932650819   0.931584404862421
   0.873931172697240   0.142936932650819   0.931584404862421
   0.373931172697240   0.642936932650819   0.931584404862421
   0.873931172697240   0.642936932650819   0.931584404862421
   0.319187851517681   0.066120456473393   0.071229451333742
   0.819187851517681   0.066120456473393   0.071229451333742
   0.319187851517681   0.566120456473393   0.071229451333742
   0.819187851517681   0.566120456473393   0.071229451333742
   0.157398235775951   0.020022186464397   0.828282513718691
   0.657398235775951   0.020022186464397   0.828282513718691
   0.157398235775951   0.520022186464397   0.828282513718691
   0.657398235775951   0.520022186464397   0.828282513718691
   0.348410638296943   0.373930795928742   0.068415114815636
   0.848410638296943   0.373930795928742   0.068415114815636
   0.348410638296943   0.873930795928742   0.068415114815636
   0.848410638296943   0.873930795928742   0.068415114815636
   0.425227607802279   0.319188168673632   0.928770044028382
   0.925227607802279   0.319188168673632   0.928770044028382
   0.425227607802279   0.819188168673632   0.928770044028382
   0.925227607802279   0.819188168673632   0.928770044028382
   0.117416163162673   0.348410743854426   0.931584424159802
   0.617416163162673   0.348410743854426   0.931584424159802
   0.117416163162673   0.848410743854426   0.931584424159802
   0.617416163162673   0.848410743854426   0.931584424159802
   0.172159466186793   0.425227239643710   0.071229482144699
   0.672159466186793   0.425227239643710   0.071229482144699
   0.172159466186793   0.925227239643710   0.071229482144699
   0.672159466186793   0.925227239643710   0.071229482144699
   0.333949086103164   0.471325490081178   0.828282510298699
   0.833949086103164   0.471325490081178   0.828282510298699
   0.333949086103164   0.971325490081178   0.828282510298699
   0.833949086103164   0.971325490081178   0.828282510298699
   0.485779654132986   0.061486741703337   0.725720751847387
   0.985779654132986   0.061486741703337   0.725720751847387
   0.485779654132986   0.561486741703337   0.725720751847387
   0.985779654132986   0.561486741703337   0.725720751847387
   0.005567663899508   0.429860954689494   0.725720736587777
   0.505567663899508   0.429860954689494   0.725720736587777
   0.005567663899508   0.929860954689494   0.725720736587777
   0.505567663899508   0.929860954689494   0.725720736587777
   0.179860719259112   0.255567847076861   0.225720586500363
   0.679860719259112   0.255567847076861   0.225720586500363
   0.179860719259112   0.755567847076861   0.225720586500363
   0.679860719259112   0.755567847076861   0.225720586500363
   0.255567645882193   0.311486731897997   0.774279095597275
   0.755567645882192   0.311486731897997   0.774279095597275
   0.255567645882193   0.811486731897997   0.774279095597275
   0.755567645882192   0.811486731897997   0.774279095597275
   0.311486529029977   0.235779782862686   0.225720569686693
   0.811486529029977   0.235779782862686   0.225720569686693
   0.311486529029977   0.735779782862686   0.225720569686693
   0.811486529029977   0.735779782862686   0.225720569686693
   0.235779630686577   0.179860941810108   0.774279143588845
   0.735779630686577   0.179860941810108   0.774279143588845
   0.235779630686577   0.679860941810108   0.774279143588845
   0.735779630686577   0.679860941810108   0.774279143588845
   0.270021989699877   0.407398373596109   0.328282267765169
   0.770021989699877   0.407398373596109   0.328282267765169
   0.270021989699877   0.907398373596109   0.328282267765169
   0.770021989699877   0.907398373596109   0.328282267765169
   0.407398218110503   0.221325468042349   0.671717362031785
   0.907398218110503   0.221325468042349   0.671717362031785
   0.407398218110503   0.721325468042350   0.671717362031785
   0.907398218110503   0.721325468042350   0.671717362031785
   0.221325283838906   0.083949254995962   0.328282283385685
   0.721325283838906   0.083949254995962   0.328282283385685
   0.221325283838906   0.583949254995962   0.328282283385685
   0.721325283838906   0.583949254995962   0.328282283385685
   0.083949056519307   0.270022176465503   0.671717358079015
   0.583949056519308   0.270022176465503   0.671717358079015
   0.083949056519307   0.770022176465503   0.671717358079015
   0.583949056519308   0.770022176465503   0.671717358079015
   0.098410621415942   0.367416853744875   0.431584736675553
   0.598410621415942   0.367416853744875   0.431584736675553
   0.098410621415942   0.867416853744875   0.431584736675553
   0.598410621415942   0.867416853744875   0.431584736675553
   0.367416129013065   0.392936911440157   0.568415452929890
   0.867416129013065   0.392936911440157   0.568415452929890
   0.367416129013065   0.892936911440157   0.568415452929890
   0.867416129013065   0.892936911440157   0.568415452929890
   0.392936651270862   0.123930778318350   0.431584750203527
   0.892936651270862   0.123930778318350   0.431584750203527
   0.392936651270862   0.623930778318350   0.431584750203527
   0.892936651270862   0.623930778318350   0.431584750203527
   0.123931120250716   0.098410731494176   0.568415440636120
   0.623931120250716   0.098410731494176   0.568415440636120
   0.123931120250716   0.598410731494176   0.568415440636120
   0.623931120250716   0.598410731494176   0.568415440636120
   0.175227578177709   0.422159487084768   0.571229790171892
   0.675227578177709   0.422159487084768   0.571229790171892
   0.175227578177709   0.922159487084768   0.571229790171892
   0.675227578177709   0.922159487084768   0.571229790171892
   0.422159451294945   0.316120424406420   0.428770397188311
   0.922159451294945   0.316120424406420   0.428770397188311
   0.422159451294945   0.816120424406420   0.428770397188311
   0.922159451294945   0.816120424406420   0.428770397188311
   0.316119687896427   0.069188148268711   0.571229819264235
   0.816119687896427   0.069188148268711   0.571229819264235
   0.316119687896427   0.569188148268711   0.571229819264235
   0.816119687896427   0.569188148268711   0.571229819264235
   0.069187829959799   0.175227232145231   0.428770387148171
   0.569187829959799   0.175227232145231   0.428770387148171
   0.069187829959799   0.675227232145232   0.428770387148171
   0.569187829959799   0.675227232145232   0.428770387148171
