H C N
        1.0000000000
  -6.987922160878576   6.987922160878576   6.987922160878576
   6.987922160878576  -6.987922160878576   6.987922160878576
   6.987922160878576   6.987922160878576  -6.987922160878576
   96   48   32
 Direct
   0.045890050492699   0.167684560402205   0.258354252438057
   0.545890050492699   0.167684560402205   0.258354252438057
   0.045890050492699   0.667684560402205   0.258354252438057
   0.545890050492699   0.667684560402205   0.258354252438057
   0.045890050492699   0.167684560402205   0.758354252438057
   0.545890050492699   0.167684560402205   0.758354252438057
   0.045890050492699   0.667684560402205   0.758354252438057
   0.545890050492699   0.667684560402205   0.758354252438057
   0.258354252438060   0.045890050492699   0.167684560402204
   0.758354252438060   0.045890050492699   0.167684560402204
   0.258354252438060   0.545890050492699   0.167684560402204
   0.758354252438060   0.545890050492699   0.167684560402204
   0.258354252438060   0.045890050492699   0.667684560402204
   0.758354252438060   0.045890050492699   0.667684560402204
   0.258354252438060   0.545890050492699   0.667684560402204
   0.758354252438060   0.545890050492699   0.667684560402204
   0.136559752008666   0.424095611886334   0.424095611886334
   0.636559752008666   0.424095611886334   0.424095611886334
   0.136559752008666   0.924095611886334   0.424095611886334
   0.636559752008666   0.924095611886334   0.424095611886334
   0.136559752008666   0.424095611886334   0.924095611886334
   0.636559752008666   0.424095611886334   0.924095611886334
   0.136559752008666   0.924095611886334   0.924095611886334
   0.636559752008666   0.924095611886334   0.924095611886334
   0.258354252438059   0.167684560402205   0.045890050492699
   0.758354252438059   0.167684560402205   0.045890050492699
   0.258354252438059   0.667684560402205   0.045890050492699
   0.758354252438059   0.667684560402205   0.045890050492699
   0.258354252438059   0.167684560402205   0.545890050492699
   0.758354252438059   0.167684560402205   0.545890050492699
   0.258354252438059   0.667684560402205   0.545890050492699
   0.758354252438059   0.667684560402205   0.545890050492699
   0.167684560402206   0.045890050492699   0.258354252438052
   0.667684560402206   0.045890050492699   0.258354252438052
   0.167684560402206   0.545890050492699   0.258354252438052
   0.667684560402206   0.545890050492699   0.258354252438052
   0.167684560402206   0.045890050492699   0.758354252438052
   0.667684560402206   0.045890050492699   0.758354252438052
   0.167684560402206   0.545890050492699   0.758354252438052
   0.667684560402206   0.545890050492699   0.758354252438052
   0.167684560402206   0.258354252438055   0.045890050492699
   0.667684560402206   0.258354252438055   0.045890050492699
   0.167684560402206   0.758354252438055   0.045890050492699
   0.667684560402206   0.758354252438055   0.045890050492699
   0.167684560402206   0.258354252438055   0.545890050492699
   0.667684560402206   0.258354252438055   0.545890050492699
   0.167684560402206   0.758354252438055   0.545890050492699
   0.667684560402206   0.758354252438055   0.545890050492699
   0.455220401984719   0.333426031270628   0.333426031270627
   0.955220401984719   0.333426031270628   0.333426031270627
   0.455220401984719   0.833426031270628   0.333426031270627
   0.955220401984719   0.833426031270628   0.333426031270627
   0.455220401984719   0.333426031270628   0.833426031270627
   0.955220401984719   0.333426031270628   0.833426031270627
   0.455220401984719   0.833426031270628   0.833426031270627
   0.955220401984719   0.833426031270628   0.833426031270627
   0.333426031270624   0.455220401984716   0.333426031270624
   0.833426031270624   0.455220401984716   0.333426031270624
   0.333426031270624   0.955220401984716   0.333426031270624
   0.833426031270624   0.955220401984716   0.333426031270624
   0.333426031270624   0.455220401984716   0.833426031270624
   0.833426031270624   0.455220401984716   0.833426031270624
   0.333426031270624   0.955220401984716   0.833426031270624
   0.833426031270624   0.955220401984716   0.833426031270624
   0.424095611886334   0.136559752008662   0.424095611886334
   0.924095611886334   0.136559752008662   0.424095611886334
   0.424095611886334   0.636559752008662   0.424095611886334
   0.924095611886334   0.636559752008662   0.424095611886334
   0.424095611886334   0.136559752008662   0.924095611886334
   0.924095611886334   0.136559752008662   0.924095611886334
   0.424095611886334   0.636559752008662   0.924095611886334
   0.924095611886334   0.636559752008662   0.924095611886334
   0.045890050492699   0.258354252438057   0.167684560402205
   0.545890050492699   0.258354252438057   0.167684560402205
   0.045890050492699   0.758354252438057   0.167684560402205
   0.545890050492699   0.758354252438057   0.167684560402205
   0.045890050492699   0.258354252438057   0.667684560402205
   0.545890050492699   0.258354252438057   0.667684560402205
   0.045890050492699   0.758354252438057   0.667684560402205
   0.545890050492699   0.758354252438057   0.667684560402205
   0.424095611886335   0.424095611886335   0.136559752008669
   0.924095611886335   0.424095611886335   0.136559752008669
   0.424095611886335   0.924095611886335   0.136559752008669
   0.924095611886335   0.924095611886335   0.136559752008669
   0.424095611886335   0.424095611886335   0.636559752008669
   0.924095611886335   0.424095611886335   0.636559752008669
   0.424095611886335   0.924095611886335   0.636559752008669
   0.924095611886335   0.924095611886335   0.636559752008669
   0.333426031270619   0.333426031270619   0.455220401984710
   0.833426031270619   0.333426031270619   0.455220401984710
   0.333426031270619   0.833426031270619   0.455220401984710
   0.833426031270619   0.833426031270619   0.455220401984710
   0.333426031270619   0.333426031270619   0.955220401984710
   0.833426031270619   0.333426031270619   0.955220401984710
   0.333426031270619   0.833426031270619   0.955220401984710
   0.833426031270619   0.833426031270619   0.955220401984710
   0.045890134589146   0.168342660019345   0.168342660019346
   0.545890134589146   0.168342660019345   0.168342660019346
   0.045890134589146   0.668342660019345   0.168342660019346
   0.545890134589146   0.668342660019345   0.168342660019346
   0.045890134589146   0.168342660019345   0.668342660019346
   0.545890134589146   0.168342660019345   0.668342660019346
   0.045890134589146   0.668342660019345   0.668342660019346
   0.545890134589146   0.668342660019345   0.668342660019346
   0.168342660019339   0.045890134589146   0.168342660019357
   0.668342660019339   0.045890134589146   0.168342660019357
   0.168342660019339   0.545890134589146   0.168342660019357
   0.668342660019339   0.545890134589146   0.168342660019357
   0.168342660019339   0.045890134589146   0.668342660019357
   0.668342660019339   0.045890134589146   0.668342660019357
   0.168342660019339   0.545890134589146   0.668342660019357
   0.668342660019339   0.545890134589146   0.668342660019357
   0.045890124568206   0.423437639252460   0.423437639252459
   0.545890124568206   0.423437639252460   0.423437639252459
   0.045890124568206   0.923437639252460   0.423437639252459
   0.545890124568206   0.923437639252460   0.423437639252459
   0.045890124568206   0.423437639252460   0.923437639252459
   0.545890124568206   0.423437639252460   0.923437639252459
   0.045890124568206   0.923437639252460   0.923437639252459
   0.545890124568206   0.923437639252460   0.923437639252459
   0.168342660019340   0.168342660019352   0.045890134589146
   0.668342660019340   0.168342660019352   0.045890134589146
   0.168342660019340   0.668342660019352   0.045890134589146
   0.668342660019340   0.668342660019352   0.045890134589146
   0.168342660019340   0.168342660019352   0.545890134589146
   0.668342660019340   0.168342660019352   0.545890134589146
   0.168342660019340   0.668342660019352   0.545890134589146
   0.668342660019340   0.668342660019352   0.545890134589146
   0.423437639252455   0.045890124568210   0.423437639252456
   0.923437639252455   0.045890124568210   0.423437639252456
   0.423437639252455   0.545890124568210   0.423437639252456
   0.923437639252455   0.545890124568210   0.423437639252456
   0.423437639252455   0.045890124568210   0.923437639252455
   0.923437639252455   0.045890124568210   0.923437639252455
   0.423437639252455   0.545890124568210   0.923437639252455
   0.923437639252455   0.545890124568210   0.923437639252455
   0.423437639252457   0.423437639252457   0.045890124568197
   0.923437639252457   0.423437639252457   0.045890124568197
   0.423437639252457   0.923437639252457   0.045890124568197
   0.923437639252457   0.923437639252457   0.045890124568197
   0.423437639252457   0.423437639252457   0.545890124568197
   0.923437639252457   0.423437639252457   0.545890124568197
   0.423437639252457   0.923437639252457   0.545890124568197
   0.923437639252457   0.923437639252457   0.545890124568197
   0.171567813307288   0.171567813307284   0.171567813307283
   0.671567813307288   0.171567813307284   0.171567813307283
   0.171567813307288   0.671567813307284   0.171567813307283
   0.671567813307288   0.671567813307284   0.171567813307283
   0.171567813307288   0.171567813307284   0.671567813307283
   0.671567813307288   0.171567813307284   0.671567813307283
   0.171567813307288   0.671567813307284   0.671567813307283
   0.671567813307288   0.671567813307284   0.671567813307283
   0.045890151145105   0.420212550944421   0.045890151145098
   0.545890151145105   0.420212550944421   0.045890151145098
   0.045890151145105   0.920212550944421   0.045890151145098
   0.545890151145105   0.920212550944421   0.045890151145098
   0.045890151145105   0.420212550944421   0.545890151145098
   0.545890151145105   0.420212550944421   0.545890151145098
   0.045890151145105   0.920212550944421   0.545890151145098
   0.545890151145105   0.920212550944421   0.545890151145098
   0.045890151145097   0.045890151145093   0.420212550944417
   0.545890151145097   0.045890151145093   0.420212550944417
   0.045890151145097   0.545890151145093   0.420212550944417
   0.545890151145097   0.545890151145093   0.420212550944417
   0.045890151145097   0.045890151145093   0.920212550944417
   0.545890151145097   0.045890151145093   0.920212550944417
   0.045890151145097   0.545890151145093   0.920212550944417
   0.545890151145097   0.545890151145093   0.920212550944417
   0.420212550944417   0.045890151145095   0.045890151145094
   0.920212550944417   0.045890151145095   0.045890151145094
   0.420212550944417   0.545890151145095   0.045890151145094
   0.920212550944417   0.545890151145095   0.045890151145094
   0.420212550944417   0.045890151145095   0.545890151145094
   0.920212550944417   0.045890151145095   0.545890151145094
   0.420212550944417   0.545890151145095   0.545890151145094
   0.920212550944417   0.545890151145095   0.545890151145094
