 C  H 
 1.0000000000000000
    25.0000000000000000    0.0000000000000000    0.0000000000000000
     0.0000000000000000   22.0000000000000000    0.0000000000000000
     0.0000000000000000    0.0000000000000000   20.0000000000000000
 C   H  
  14  10
Cartesian
  6.4711142508780037  4.0954892588520551  4.9857881008272456
  7.8442358413336954  4.0951275941997425  4.9905607771705061
  8.5819265079972524  5.3218138590954558  4.9898252839886972
  7.8459971680932243  6.5736970285364302  4.9839010797279037
  6.4153953248526481  6.5257161021648571  4.9790586661464520
  5.7478997416895012  5.3257433386066335  4.9799662529989197
  9.9848318747709399  5.3555063669891663  4.9946098801652150
  8.5577331265446652  7.7831319636473495  4.9831217862895301
  9.9606384928865932  7.8168244715092774  4.9879063825859706
 10.6965678334875687  6.5649413025689114  4.9938305863776247
 12.1271696769992641  6.6129222320323047  4.9986730001467636
 12.7946652579307436  7.8128949971237400  4.9977654143824672
 12.0714507471560744  9.0431490756798922  4.9919435662159151
 10.6983291569959587  9.0435107375340262  4.9871708895956859
 12.6764919857083225  5.6784381977248728  5.0030951222024500
 10.5348171820295864  4.4199310180989917  4.9990372447875293
  5.9267727686771137  3.1596309955156192  4.9864133502225894
  8.3935900487548132  3.1606623119514210  4.9949829568747761
  5.8660730189768886  7.4602001382614995  4.9746365439214246
  4.6654462599287099  5.3052628440949094  4.9762597241816380
  8.0077478195432086  8.7187073125855079  4.9786944224887826
 13.8771187396000890  7.8333754950617784  5.0014719443770170
 12.6157922278492372  9.9790073398514352  4.9913183157331744
 10.1489749473166579  9.9779760183134947  4.9827487085918056
