 C  H  N  O 
 1.0000000000000000
    24.1049026339290542    0.0002002837800886    0.3347274759713531
    -0.0002107446557615   25.2639103811017200    0.0000598335609442
    -3.7047356886629137   -0.0000455404228032    6.1800753153808303
 C   H   N   O  
 128 128  64  64
Selective dynamics
Cartesian
 -0.0395279612034142  2.6392631796100052  3.1066965661463235   T   T   T
 12.0129233557611101  2.6393633215000536  3.2740603041320004   T   T   T
 -0.0396333335312950 15.2712183701608737  3.1067264829267991   T   T   T
 12.0128179834332300 15.2713185120509181  3.2740902209124743   T   T   T
 -1.8918958055348520  2.6392404093986004  6.1967342238367307   T   T   T
 10.1605555114296759  2.6393405512886474  6.3640979618223952   T   T   T
 -1.8920011778627333 15.2711955999494737  6.1967641406172040   T   T   T
 10.1604501391018172 15.2712957418395288  6.3641278786028712   T   T   T
 10.2394402031051097  9.9927693821014714  0.1507214860536078   T   T   T
 22.2918915200696937  9.9928695239915104  0.3180852240392847   T   T   T
 10.2393348307772332 22.6247245726523829  0.1507514028340796   T   T   T
 22.2917861477417745 22.6248247145424486  0.3181151408197558   T   T   T
  8.3870723587735316  9.9927466118900732  3.2407591437440133   T   T   T
 20.4395236757382115  9.9928467537801211  3.4081228817296969   T   T   T
  8.3869669864456711 22.6247018024409812  3.2407890605244880   T   T   T
 20.4394183034103492 22.6248019443309971  3.4081527985101658   T   T   T
  4.2132231986300512  8.9552834496023124  0.0670371600586300   T   T   T
 16.2656745155944940  8.9553835914923479  0.2344008980443038   T   T   T
  4.2131178263021747 21.5872386401532452  0.0670670768391018   T   T   T
 16.2655691432665606 21.5873387820432434  0.2344308148247746   T   T   T
  2.3608553542986295  8.9552606793908964  3.1570748177490326   T   T   T
 14.4133066712631397  8.9553608212809372  3.3244385557347189   T   T   T
  2.3607499819707543 21.5872158699417831  3.1571047345295078   T   T   T
 14.4132012989352489 21.5873160118318381  3.3244684725151910   T   T   T
  5.9866890432715731  3.6767491121091771  3.1903808921413015   T   T   T
 18.0391403602359510  3.6768492539992184  3.3577446301269780   T   T   T
  5.9865836709437055 16.3087043026599119  3.1904108089217749   T   T   T
 18.0390349879080709 16.3088044445499669  3.3577745469074487   T   T   T
  4.1343211989401274  3.6767263418977718  6.2804185498317002   T   T   T
 16.1867725159044937  3.6768264837878193  6.4477822878173727   T   T   T
  4.1342158266122491 16.3086815324485102  6.2804484666121718   T   T   T
 16.1866671435766634 16.3087816743385616  6.4478122045978523   T   T   T
  2.1251787386364884  0.1679816870429152  0.1350638503454018   T   T   T
 14.1776300556010231  0.1680818289329593  0.3024275883310779   T   T   T
  2.1250733663086039 12.7999368775937921  0.1350937671258738   T   T   T
 14.1775246832731572 12.8000370194838187  0.3024575051115496   T   T   T
  0.2728108943050483  0.1679589168315140  3.2251015080358165   T   T   T
 12.3252622112695835  0.1680590587215577  3.3924652460214939   T   T   T
  0.2727055219771676 12.7999141073823886  3.2251314248162881   T   T   T
 12.3251568389417070 12.8000142492724152  3.3924951628019664   T   T   T
  8.0747335032651026 12.4640508746685921  3.1223542018545207   T   T   T
 20.1271848202297505 12.4641510165586364  3.2897179398402008   T   T   T
  8.0746281309372385 25.0960060652194592  3.1223841186349932   T   T   T
 20.1270794479018491 25.0961062071095427  3.2897478566206710   T   T   T
  6.2223656589337502 12.4640281044571921  6.2123918595449172   T   T   T
 18.2748169758980943 12.4641282463472276  6.3797555975305942   T   T   T
  6.2222602866058603 25.0959832950081179  6.2124217763253853   T   T   T
 18.2747116035702568 25.0960834368981445  6.3797855143110676   T   T   T
  2.0485577287223755  6.4839517669394837  3.0386581700649073   T   T   T
 14.1010090456868671  6.4840519088295281  3.2060219080505887   T   T   T
  2.0484523563944950 19.1159069574902318  3.0386880868453794   T   T   T
 14.1009036733590083 19.1160070993803082  3.2060518248310665   T   T   T
  0.1961898843909303  6.4839289967280926  6.1286958277553190   T   T   T
 12.2486412013554133  6.4840291386181272  6.2960595657409923   T   T   T
  0.1960845120630494 19.1158841872788692  6.1287257445357914   T   T   T
 12.2485358290275457 19.1159843291689100  6.2960894825214657   T   T   T
  8.1513545131792320  6.1480807947720457  0.2187598821350142   T   T   T
 20.2038058301439207  6.1481809366620892  0.3861236201206938   T   T   T
  8.1512491408513821 18.7800359853228365  0.2187897989154866   T   T   T
 20.2037004578160406 18.7801361272128666  0.3861535369011653   T   T   T
  6.2989866688478529  6.1480580245606422  3.3087975398254330   T   T   T
 18.3514379858122894  6.1481581664506821  3.4761612778111068   T   T   T
  6.2988812965199630 18.7800132151114134  3.3088274566059037   T   T   T
 18.3513326134843950 18.7801133570014755  3.4761911945915758   T   T   T
  3.5336960105833817  0.3893517097092533  0.3340511148707347   T   T   T
 15.5861473275478772  0.3894518515992960  0.5014148528564104   T   T   T
  3.5335906382554931 13.0213069002601340  0.3340810316512059   T   T   T
 15.5860419552199989 13.0214070421501891  0.5014447696368822   T   T   T
  1.6813281662519217  0.3893289394978511  3.4240887725611340   T   T   T
 13.7337794832163631  0.3894290813878952  3.5914525105468149   T   T   T
  1.6812227939240389 13.0212841300487234  3.4241186893416069   T   T   T
 13.7336741108884812 13.0213842719387838  3.5914824273272852   T   T   T
  6.6662162313183195 12.2426808520022838  2.9233669373292037   T   T   T
 18.7186675482827134 12.2427809938923033  3.0907306753148709   T   T   T
  6.6661108589904288 24.8746360425531670  2.9233968541096749   T   T   T
 18.7185621759548404 24.8747361844432113  3.0907605920953460   T   T   T
  4.8138483869868205 12.2426580817908679  6.0134045950195842   T   T   T
 16.8662997039512135 12.2427582236809087  6.1807683330052638   T   T   T
  4.8137430146589431 24.8746132723417510  6.0134345118000629   T   T   T
 16.8661943316233653 24.8747134142318025  6.1807982497857381   T   T   T
  0.6400367637468536  6.7052992331775085  2.8396719540456754   T   T   T
 12.6924880807113620  6.7053993750675476  3.0070356920313563   T   T   T
  0.6399313914189733 19.3372544237282433  2.8397018708261479   T   T   T
 12.6923827083834801 19.3373545656182948  3.0070656088118271   T   T   T
 -1.2123310805845937  6.7052764629661183  5.9297096117360608   T   T   T
 10.8401202363799545  6.7053766048561458  6.0970733497217440   T   T   T
 -1.2124364529124771 19.3372316535168665  5.9297395285165306   T   T   T
 10.8400148640520584 19.3373317954068646  6.0971032665022173   T   T   T
  9.5598754781547655  5.9267333285339880  0.4177460981542571   T   T   T
 21.6123267951193547  5.9268334704240369  0.5851098361399357   T   T   T
  9.5597701058268960 18.5586885190847894  0.4177760149347294   T   T   T
 21.6122214227914711 18.5587886609748445  0.5851397529204069   T   T   T
  7.7075076338233677  5.9267105583225819  3.5077837558446614   T   T   T
 19.7599589507877766  5.9268107002126325  3.6751474938303392   T   T   T
  7.7074022614955018 18.5586657488733948  3.5078136726251361   T   T   T
 19.7598535784599463 18.5587658907633823  3.6751774106108126   T   T   T
  4.0129401320300975  1.6653385376543877  0.3557276948510917   T   T   T
 16.0653914489945535  1.6654386795444318  0.5230914328367657   T   T   T
  4.0128347597022147 14.2972937282052719  0.3557576116315631   T   T   T
 16.0652860766666592 14.2973938700953251  0.5231213496172372   T   T   T
  2.1605722876986788  1.6653157674429862  3.4457653525414971   T   T   T
 14.2130236046631939  1.6654159093330303  3.6131290905271785   T   T   T
  2.1604669153708023 14.2972709579938577  3.4457952693219696   T   T   T
 14.2129182323353263 14.2973710998839181  3.6131590073076496   T   T   T
  6.1869721098715438 10.9666940240571265  2.9016903573488406   T   T   T
 18.2394234268358701 10.9667941659471673  3.0690540953345100   T   T   T
  6.1868667375436663 23.5986492146079705  2.9017202741293113   T   T   T
 18.2393180545080540 23.5987493564980575  3.0690840121149852   T   T   T
  4.3346042655400598 10.9666712538457212  5.9917280150392358   T   T   T
 16.3870555825043773 10.9667713957357638  6.1590917530249092   T   T   T
  4.3344988932121895 23.5986264443965652  5.9917579318197047   T   T   T
 16.3869502101765470 23.5987265862866309  6.1591216698053772   T   T   T
  0.1607713544971214  7.9812781681581306  2.8180014179910828   T   T   T
 12.2132226714616294  7.9813783100481821  2.9853651559767624   T   T   T
  0.1606659821692405 20.6132333587090137  2.8180313347715531   T   T   T
 12.2131172991337600 20.6133335005990936  2.9853950727572314   T   T   T
 -1.6915964898343236  7.9812553979467280  5.9080390756814705   T   T   T
 10.3608548271302059  7.9813555398367750  6.0754028136671590   T   T   T
 -1.6917018621622073 20.6132105884976085  5.9080689924619447   T   T   T
 10.3607494548023364 20.6133107303876812  6.0754327304476341   T   T   T
 10.0391408874045851  4.6507543935533677  0.4394166342088482   T   T   T
 22.0915922043691779  4.6508545354434121  0.6067803721945249   T   T   T
 10.0390355150767050 17.2827095841040794  0.4394465509893197   T   T   T
 22.0914868320413120 17.2828097259941273  0.6068102889749964   T   T   T
  8.1867730430730568  4.6507316233419607  3.5294542918992513   T   T   T
 20.2392243600377384  4.6508317652320086  3.6968180298849336   T   T   T
  8.1866676707451305 17.2826868138926848  3.5294842086797233   T   T   T
 20.2391189877098370 17.2827869557827540  3.6968479466654043   T   T   T
  5.0593966751595074  1.9044731515629629  0.4842358014866903   T   T   T
 17.1118479921238205  1.9045732934530053  0.6515995394723619   T   T   T
  5.0592913028316264 14.5364283421138456  0.4842657182671618   T   T   T
 17.1117426197959333 14.5365284840038740  0.6516294562528334   T   T   T
  3.2070288308280310  1.9044503813515616  3.5742734591771042   T   T   T
 15.2594801477925568  1.9045505232416042  3.7416371971627829   T   T   T
  3.2069234585001478 14.5364055719024492  3.5743033759575780   T   T   T
 15.2593747754646554 14.5365057137924740  3.7416671139432522   T   T   T
  5.1405155667421969 10.7275594101485243  2.7731822507132411   T   T   T
 17.1929668837065535 10.7276595520385847  2.9405459886989131   T   T   T
  5.1404101944143257 23.3595146006993808  2.7732121674937149   T   T   T
 17.1928615113787338 23.3596147425894038  2.9405759054793856   T   T   T
  3.2881477224107427 10.7275366399371386  5.8632199084036287   T   T   T
 15.3405990393752720 10.7276367818271829  6.0305836463893225   T   T   T
  3.2880423500828635 23.3594918304880039  5.8632498251841030   T   T   T
 15.3404936670473848 23.3595919723780447  6.0306135631697888   T   T   T
 -0.8856891780832248  8.2203959322221323  2.6894944440203168   T   T   T
 11.1667621388813210  8.2204960741121962  2.8568581820059933   T   T   T
 -0.8857945504111054 20.8523511227730509  2.6895243608007862   T   T   T
 11.1666567665534533 20.8524512646631308  2.8568880987864662   T   T   T
 -2.7380570224146759  8.2203731620107430  5.7795321017107169   T   T   T
  9.3143942945498104  8.2204733039007891  5.9468958396963876   T   T   T
 -2.7381623947425586 20.8523283525616776  5.7795620184911751   T   T   T
  9.3142889222219161 20.8524284944517042  5.9469257564768592   T   T   T
 11.0856014199849238  4.4116366294892773  0.5679236081796145   T   T   T
 23.1380527369494153  4.4117367713793172  0.7352873461652890   T   T   T
 11.0854960476570330 17.0435918200400351  0.5679535249600862   T   T   T
 23.1379473646215281 17.0436919619300689  0.7353172629457609   T   T   T
  9.2332335756533954  4.4116138592778791  3.6579612658700218   T   T   T
 21.2856848926179687  4.4117140011679163  3.8253250038557014   T   T   T
  9.2331282033255277 17.0435690498286263  3.6579911826504943   T   T   T
 21.2855795202901028 17.0436691917186920  3.8253549206361708   T   T   T
  3.5785539323514479  3.7055017154263430  0.1742780301712085   T   T   T
 15.6310052493159404  3.7056018573163869  0.3416417681568837   T   T   T
  3.5784485600235683 16.3374569059770316  0.1743079469516803   T   T   T
 15.6308998769880443 16.3375570478670475  0.3416716849373551   T   T   T
  1.7261860880199986  3.7054789452149448  3.2643156878616217   T   T   T
 13.7786374049844405  3.7055790871049865  3.4316794258473022   T   T   T
  1.7260807156921154 16.3374341357656405  3.2643456046420947   T   T   T
 13.7785320326565390 16.3375342776556849  3.4317093426277694   T   T   T
  6.6213583095502422  8.9265308462851625  3.0831400220287200   T   T   T
 18.6738096265145934  8.9266309881751926  3.2505037600143929   T   T   T
  6.6212529372223639 21.5584860368360864  3.0831699388091929   T   T   T
 18.6737042541867169 21.5585861787261450  3.2505336767948645   T   T   T
  4.7689904652187565  8.9265080760737519  6.1731776797191200   T   T   T
 16.8214417821830438  8.9266082179637927  6.3405414177047978   T   T   T
  4.7688850928908728 21.5584632666246918  6.1732075964995943   T   T   T
 16.8213364098551708 21.5585634085147362  6.3405713344852694   T   T   T
  0.5951235171520024 10.0214477332164176  2.9994607462912892   T   T   T
 12.6475748341165062 10.0215478751064495  3.1668244842769662   T   T   T
  0.5950181448241212 22.6534029237672385  2.9994906630717613   T   T   T
 12.6474694617886563 22.6535030656573149  3.1668544010574387   T   T   T
 -1.2572443271794420 10.0214249630050105  6.0894984039816817   T   T   T
 10.7952069897850880 10.0215251048950389  6.2568621419673702   T   T   T
 -1.2573496995073219 22.6533801535558474  6.0895283207621649   T   T   T
 10.7951016174572043 22.6534802954458705  6.2568920587478427   T   T   T
  9.6047887247496107  2.6105848284951056  0.2579573059086372   T   T   T
 21.6572400417142639  2.6106849703851518  0.4253210438943160   T   T   T
  9.6046833524217323 15.2425400190459843  0.2579872226891088   T   T   T
 21.6571346693863021 15.2426401609360163  0.4253509606747863   T   T   T
  7.7524208804182262  2.6105620582837048  3.3479949635990511   T   T   T
 19.8048721973826574  2.6106622001737518  3.5153587015847250   T   T   T
  7.7523155080903452 15.2425172488345861  3.3480248803795227   T   T   T
 19.8047668250548412 15.2426173907246074  3.5153886183651974   T   T   T
 -1.5214634643050149  1.2096382655809237  2.9737437698532085   T   T   T
 10.5309878526595568  1.2097384074709656  3.1411075078388841   T   T   T
 -1.5215688366328965 13.8415934561317346  2.9737736866336797   T   T   T
 10.5308824803316252 13.8416935980217986  3.1411374246193544   T   T   T
 -3.3738313086364680  1.2096154953695231  6.0637814275435975   T   T   T
  8.6786200083279699  1.2097156372595652  6.2311451655292762   T   T   T
 -3.3739366809643530 13.8415706859203453  6.0638113443240655   T   T   T
  8.6785146360001075 13.8416708278103879  6.2311750823097523   T   T   T
 11.7213757062066808 11.4223942961305838  0.2836742823467200   T   T   T
 23.7738270231711581 11.4224944380206352  0.4510380203323943   T   T   T
 11.7212703338787918 24.0543494866814278  0.2837041991271917   T   T   T
 23.7737216508433349 24.0544496285714828  0.4510679371128676   T   T   T
  9.8690078618751773 11.4223715259191785  3.3737119400371336   T   T   T
 21.9214591788397435 11.4224716678092211  3.5410756780228079   T   T   T
  9.8689024895472830 24.0543267164700225  3.3737418568176039   T   T   T
 21.9213538065118705 24.0544268583600633  3.5411055948032817   T   T   T
  5.6951825526136162  7.5256826298373447  0.1999831847295129   T   T   T
 17.7476338695779212  7.5257827717273802  0.3673469227151839   T   T   T
  5.6950771802857334 20.1576378203882385  0.2000131015099845   T   T   T
 17.7475284972500624 20.1577379622782829  0.3673768394956564   T   T   T
  3.8428147082821522  7.5256598596259421  3.2900208424199211   T   T   T
 15.8952660252466220  7.5257600015159802  3.4573845804056038   T   T   T
  3.8427093359542694 20.1576150501768616  3.2900507592003971   T   T   T
 15.8951606529187455 20.1577151920668882  3.4574144971860790   T   T   T
  4.5047296892880286  5.1063499318742007  3.0574348674704126   T   T   T
 16.5571810062525202  5.1064500737642424  3.2247986054560940   T   T   T
  4.5046243169601619 17.7383051224249115  3.0574647842508886   T   T   T
 16.5570756339246259 17.7384052643149559  3.2248285222365687   T   T   T
  2.6523618449566313  5.1063271616627981  6.1474725251608131   T   T   T
 14.7048131619211429  5.1064273035528425  6.3148362631465007   T   T   T
  2.6522564726287552 17.7382823522134920  6.1475024419412865   T   T   T
 14.7047077895932468 17.7383824941035613  6.3148661799269661   T   T   T
  4.1835433929484385 12.1643999583040650  0.4404776452437116   T   T   T
 16.2359947099128306 12.1645001001940987  0.6078413832293841   T   T   T
  4.1834380206205575 24.7963551488549605  0.4405075620241834   T   T   T
 16.2358893375849860 24.7964552907449978  0.6078713000098560   T   T   T
  2.3311755486170158 12.1643771880926455  3.5305153029341096   T   T   T
 14.3836268655815189 12.1644773299826987  3.6978790409197950   T   T   T
  2.3310701762891366 24.7963323786435694  3.5305452197145843   T   T   T
 14.3835214932536495 24.7964325205335818  3.6979089577002666   T   T   T
  6.0163688489532214  0.4676326034074700  2.8169404069562294   T   T   T
 18.0688201659176038  0.4677327452975139  2.9843041449419010   T   T   T
  6.0162634766253396 13.0995877939583494  2.8169703237367023   T   T   T
 18.0687147935897023 13.0996879358484044  2.9843340617223690   T   T   T
  4.1640010046217313  0.4676098331960684  5.9069780646466050   T   T   T
 16.2164523215861109  0.4677099750861125  6.0743418026322828   T   T   T
  4.1638956322938547 13.0995650237469601  5.9070079814270793   T   T   T
 16.2163469492582912 13.0996651656369867  6.0743717194127500   T   T   T
 -0.0099016946914851  5.8483819518598024  2.7332712815325815   T   T   T
 12.0425496222730519  5.8484820937498485  2.9006350195182558   T   T   T
 -0.0100070670193658 18.4803371424105727  2.7333011983130584   T   T   T
 12.0424442499451612 18.4804372843005993  2.9006649362987291   T   T   T
 -1.8622695390229238  5.8483591816483989  5.8233089392229624   T   T   T
 10.1901817779416017  5.8484593235384548  5.9906726772086465   T   T   T
 -1.8623749113508050 18.4803143721991567  5.8233388560034332   T   T   T
 10.1900764056137358 18.4804145140891833  5.9907025939891190   T   T   T
 10.2098139365931875  6.7836506098516836  0.5241467706673589   T   T   T
 22.2622652535577537  6.7837507517417333  0.6915105086530360   T   T   T
 10.2097085642653145 19.4156058004024707  0.5241766874478304   T   T   T
 22.2621598812298771 19.4157059422925116  0.6915404254335079   T   T   T
  8.3574460922616414  6.7836278396402898  3.6141844283577576   T   T   T
 20.4098974092262928  6.7837279815303324  3.7815481663434412   T   T   T
  8.3573407199337719 19.4155830301910797  3.6142143451382314   T   T   T
 20.4097920368984305 19.4156831720811596  3.7815780831239119   T   T   T
  3.1867604116756798  2.7528823351208653  0.1964780572058850   T   T   T
 15.2392117286401909  2.7529824770109048  0.3638417951915600   T   T   T
  3.1866550393478041 15.3848375256717151  0.1965079739863570   T   T   T
 15.2391063563123179 15.3849376675617773  0.3638717119720316   T   T   T
  1.3343925673442429  2.7528595649094592  3.2865157148962987   T   T   T
 13.3868438843087567  2.7529597067995022  3.4538794528819752   T   T   T
  1.3342871950163622 15.3848147554603258  3.2865456316767685   T   T   T
 13.3867385119808464 15.3849148973503613  3.4539093696624485   T   T   T
  7.0131518302259845  9.8791502265906121  3.0609399949940457   T   T   T
 19.0656031471903766  9.8792503684806601  3.2283037329797151   T   T   T
  7.0130464578981044 22.5111054171415290  3.0609699117745186   T   T   T
 19.0654977748625356 22.5112055590315521  3.2283336497601862   T   T   T
  5.1607839858945574  9.8791274563792335  6.1509776526844373   T   T   T
 17.2132353028589051  9.8792275982692441  6.3183413906701187   T   T   T
  5.1606786135666791 22.5110826469301166  6.1510075694649071   T   T   T
 17.2131299305310463 22.5111827888201788  6.3183713074505929   T   T   T
  0.9869329307549096  9.0688349946781877  2.9772562070168052   T   T   T
 13.0393842477194237  9.0689351365682445  3.1446199450024834   T   T   T
  0.9868275584270283 21.7007901852291276  2.9772861237972772   T   T   T
 13.0392788753915312 21.7008903271191897  3.1446498617829541   T   T   T
 -0.8654349135765320  9.0688122244668072  6.0672938647072137   T   T   T
 11.1870164033880091  9.0689123663568623  6.2346576026928844   T   T   T
 -0.8655402859044138 21.7007674150177685  6.0673237814876853   T   T   T
 11.1869110310601094 21.7008675569077738  6.2346875194733640   T   T   T
  9.2129793111467357  3.5631975670332876  0.2801618451831211   T   T   T
 21.2654306281113499  3.5632977089233329  0.4475255831687990   T   T   T
  9.2128739388188539 16.1951527575839940  0.2801917619635929   T   T   T
 21.2653252557834271 16.1952528994740348  0.4475554999492699   T   T   T
  7.3606114668153149  3.5631747968218801  3.3701995028735365   T   T   T
 19.4130627837797967  3.5632749387119249  3.5375632408592090   T   T   T
  7.3605060944874383 16.1951299873725567  3.3702294196540081   T   T   T
 19.4129574114518526 16.1952301292626579  3.5375931576396784   T   T   T
 -0.5045831202004949  1.3262149754250883  3.0892441988341308   T   T   T
 11.5478681967640355  1.3263151173151324  3.2566079368198033   T   T   T
 -0.5046884925283766 13.9581701659759272  3.0892741156145997   T   T   T
 11.5477628244361377 13.9582703078659627  3.2566378536002736   T   T   T
 -2.3569509645319480  1.3261922052136847  6.1792818565245264   T   T   T
  9.6955003524325463  1.3262923471037291  6.3466455945102078   T   T   T
 -2.3570563368598236 13.9581473957645059  6.1793117733050025   T   T   T
  9.6953949801046662 13.9582475376545414  6.3466755112906723   T   T   T
 10.7044953621021737 11.3058175862864179  0.1681738533658027   T   T   T
 22.7569466790667256 11.3059177281764587  0.3355375913514779   T   T   T
 10.7043899897743220 23.9377727768372495  0.1682037701462745   T   T   T
 22.7568413067388597 23.9378729187272938  0.3355675081319495   T   T   T
  8.8521275177706222 11.3057948160750197  3.2582115110562104   T   T   T
 20.9045788347353074 11.3058949579650641  3.4255752490418869   T   T   T
  8.8520221454427404 23.9377500066258300  3.2582414278366856   T   T   T
 20.9044734624073918 23.9378501485159418  3.4256051658223625   T   T   T
  4.6783002637437239  7.6422429216753969  0.0844833078965693   T   T   T
 16.7307515807081018  7.6423430635654377  0.2518470458822418   T   T   T
  4.6781948914158455 20.2741981122262835  0.0845132246770410   T   T   T
 16.7306462083802359 20.2742982541163244  0.2518769626627141   T   T   T
  2.8259324194122994  7.6422201514639871  3.1745209655869848   T   T   T
 14.8783837363767812  7.6423202933540395  3.3418847035726640   T   T   T
  2.8258270470844158 20.2741753420148676  3.1745508823674577   T   T   T
 14.8782783640488994 20.2742754839048978  3.3419146203531365   T   T   T
  5.5216119781579449  4.9897896400361175  3.1729347443033533   T   T   T
 17.5740632951223361  4.9898897819261609  3.3402984822890347   T   T   T
  5.5215066058300613 17.6217448305868167  3.1729646610838271   T   T   T
 17.5739579227944311 17.6218449724768682  3.3403283990695032   T   T   T
  3.6692441338264854  4.9897668698247220  6.2629724019937534   T   T   T
 15.7216954507909961  4.9898670117147734  6.4303361399794277   T   T   T
  3.6691387614986088 17.6217220603754647  6.2630023187742214   T   T   T
 15.7215900784631462 17.6218222022655198  6.4303660567599064   T   T   T
 -0.7896643931082999  3.6119490863638468  2.9776467510908291   T   T   T
 11.2627869238562290  3.6120492282538890  3.1450104890765056   T   T   T
 -0.7897697654361800 16.2439042769145630  2.9776766678712994   T   T   T
 11.2626815515283489 16.2440044188045967  3.1450404058569759   T   T   T
 -2.6420322374397429  3.6119263161524451  6.0676844087812283   T   T   T
  9.4104190795247060  3.6120264580424877  6.2350481467669105   T   T   T
 -2.6421376097676301 16.2438815067031719  6.0677143255617061   T   T   T
  9.4103137071968224 16.2439816485931949  6.2350780635473813   T   T   T
 10.9895766350100015  9.0200834753476506  0.2797713011090974   T   T   T
 23.0420279519744646  9.0201836172376968  0.4471350390947716   T   T   T
 10.9894712626821214 21.6520386658985693  0.2798012178895691   T   T   T
 23.0419225796466307 21.6521388077886101  0.4471649558752441   T   T   T
  9.1372087906784785  9.0200607051362613  3.3698089587995126   T   T   T
 21.1896601076430890  9.0201608470263039  3.5371726967851869   T   T   T
  9.1371034183505984 21.6520158956871747  3.3698388755799842   T   T   T
 21.1895547353151983 21.6521160375772190  3.5372026135656593   T   T   T
  4.9633434026741217  9.9279812598092327  0.1960915824466127   T   T   T
 17.0157947196385457  9.9280814016992682  0.3634553204322870   T   T   T
  4.9632380303462504 22.5599364503601372  0.1961214992270845   T   T   T
 17.0156893473106514 22.5600365922501815  0.3634852372127578   T   T   T
  3.1109755583426870  9.9279584895978292  3.2861292401370279   T   T   T
 15.1634268753071986  9.9280586314878700  3.4534929781227044   T   T   T
  3.1108701860148065 22.5599136801487461  3.2861591569174951   T   T   T
 15.1633215029793043 22.5600138220387727  3.4535228949031764   T   T   T
  5.2365688392275498  2.7040513019022163  3.0613264697533169   T   T   T
 17.2890201561918992  2.7041514437922660  3.2286902077389921   T   T   T
  5.2364634668996644 15.3360064924531194  3.0613563865337894   T   T   T
 17.2889147838640085 15.3361066343431567  3.2287201245194641   T   T   T
  3.3842009948960854  2.7040285316908150  6.1513641274437179   T   T   T
 15.4366523118605876  2.7041286735808603  6.3187278654293904   T   T   T
  3.3840956225682133 15.3359837222417177  6.1513940442241859   T   T   T
 15.4365469395326933 15.3360838641317550  6.3187577822098655   T   T   T
  1.5591111990056445 11.6769247238850618  0.0763670317930658   T   T   T
 13.6115625159700855 11.6770248657750884  0.2437307697787401   T   T   T
  1.5590058266777633 24.3088799144359555  0.0763969485735380   T   T   T
 13.6114571436421929 24.3089800563260070  0.2437606865592116   T   T   T
 -0.2932566453258063 11.6769019536736529  3.1664046894834783   T   T   T
 11.7591946716386815 11.6770020955637026  3.3337684274691557   T   T   T
 -0.2933620176536864 24.3088571442245538  3.1664346062639543   T   T   T
 11.7590892993108103 24.3089572861146124  3.3337983442496317   T   T   T
  8.6408010428959567  0.9551078378264516  3.1810510204068576   T   T   T
 20.6932523598605940  0.9552079797164945  3.3484147583925368   T   T   T
  8.6406956705680962 13.5870630283772673  3.1810809371873310   T   T   T
 20.6931469875326890 13.5871631702673099  3.3484446751730093   T   T   T
  6.7884331985645865  0.9550850676150482  6.2710886780972590   T   T   T
 18.8408845155290408  0.9551852095050931  6.4384524160829404   T   T   T
  6.7883278262367019 13.5870402581658798  6.2711185948777297   T   T   T
 18.8407791432011109 13.5871404000559100  6.4384823328634146   T   T   T
  2.6145386316716248  5.3609487774341424  3.0973795860674214   T   T   T
 14.6669899486361199  5.3610489193241877  3.2647433240531041   T   T   T
  2.6144332593437483 17.9929039679849012  3.0974095028478921   T   T   T
 14.6668845763082256 17.9930041098749491  3.2647732408335775   T   T   T
  0.7621707873401703  5.3609260072227363  6.1874172437578290   T   T   T
 12.8146221043046662  5.3610261491127815  6.3547809817434997   T   T   T
  0.7620654150122883 17.9928811977734675  6.1874471605383050   T   T   T
 12.8145167319767843 17.9929813396635403  6.3548108985239660   T   T   T
  7.5853736102300697  7.2710837842773923  0.1600384661325063   T   T   T
 19.6378249271944512  7.2711839261674287  0.3274022041181795   T   T   T
  7.5852682379021692 19.9030389748281422  0.1600683829129776   T   T   T
 19.6377195548665604 19.9031391167181688  0.3274321208986508   T   T   T
  5.7330057658986133  7.2710610140659924  3.2500761238229177   T   T   T
 17.7854570828629726  7.2711611559560456  3.4174398618085942   T   T   T
  5.7329003935707350 19.9030162046167582  3.2501060406033884   T   T   T
 17.7853517105351351 19.9031163465067742  3.4174697785890653   T   T   T
