 C  H  N  O 
 1.0000000000000000
    25.0000000000000000    0.0000000000000000    0.0000000000000000
     0.0000000000000000   25.0000000000000000    0.0000000000000000
     0.0000000000000000    0.0000000000000000   22.0000000000000000
 C   H   N   O  
   4   5   3   1
Cartesian
  5.2681797416973932  7.2196291802207604  5.6122153673565389
  7.2064441651562650  6.2451198416180311  4.7154892423905661
  7.7421417774642709  7.5047735196292660  4.2661476299259409
  6.9896575832409136  8.6118869665248425  4.5182032938204006
  5.2205372657844027  9.2946120611754655  5.3621483352991479
  7.5735500956760422  4.2451539529067759  4.8922027947203786
  8.8695951858597688  5.1330503653250874  4.1724605685484093
  8.6873833165406733  7.5740053462827390  3.7493892716684440
  7.2893240641264230  9.6096427839752057  4.2280846407052275
  5.7972625315942192  8.4880851533851853  5.1626377515618227
  6.0488488378539564  6.1144276451696253  5.3508105240683861
  7.9044027584513055  5.0932234692748732  4.4559091214884647
  4.1863226764639743  7.2120197147783180  6.1878114584891586
