 N  H 
 1.0000000000000000
    25.0000000000000000    0.0000000000000000    0.0000000000000000
     0.0000000000000000   25.0000000000000000    0.0000000000000000
     0.0000000000000000    0.0000000000000000   25.0000000000000000
 N   H  
   1   3
Cartesian
 12.3204349999999998 12.3205050000000007 12.3205099999999987
 13.1632650000000009 12.6294950000000004 11.8367299999999993
 12.6295150000000014 11.8367250000000013 13.1632699999999989
 11.8367350000000009 13.1632750000000005 12.6295099999999998
