N H
        1.0000000000
  20.476199574689215   0.000000000000000   0.000000000000000
   0.000000000000000  20.476410093847246   0.000000000000000
   0.000000000000000   0.000000000000000  20.476296900038943
N H
  256  768
 Direct
   0.052079525232966   0.052079380361967   0.052079241569636
   0.302079525232966   0.052079380361967   0.052079241569636
   0.552079525232966   0.052079380361967   0.052079241569636
   0.802079525232966   0.052079380361967   0.052079241569636
   0.052079525232966   0.302079380361967   0.052079241569636
   0.302079525232966   0.302079380361967   0.052079241569636
   0.552079525232966   0.302079380361967   0.052079241569636
   0.802079525232966   0.302079380361967   0.052079241569636
   0.052079525232966   0.552079380361967   0.052079241569636
   0.302079525232966   0.552079380361967   0.052079241569636
   0.552079525232966   0.552079380361967   0.052079241569636
   0.802079525232966   0.552079380361967   0.052079241569636
   0.052079525232966   0.802079380361967   0.052079241569636
   0.302079525232966   0.802079380361967   0.052079241569636
   0.552079525232966   0.802079380361967   0.052079241569636
   0.802079525232966   0.802079380361967   0.052079241569636
   0.052079525232966   0.052079380361967   0.302079241569636
   0.302079525232966   0.052079380361967   0.302079241569636
   0.552079525232966   0.052079380361967   0.302079241569636
   0.802079525232966   0.052079380361967   0.302079241569636
   0.052079525232966   0.302079380361967   0.302079241569636
   0.302079525232966   0.302079380361967   0.302079241569636
   0.552079525232966   0.302079380361967   0.302079241569636
   0.802079525232966   0.302079380361967   0.302079241569636
   0.052079525232966   0.552079380361967   0.302079241569636
   0.302079525232966   0.552079380361967   0.302079241569636
   0.552079525232966   0.552079380361967   0.302079241569636
   0.802079525232966   0.552079380361967   0.302079241569636
   0.052079525232966   0.802079380361967   0.302079241569636
   0.302079525232966   0.802079380361967   0.302079241569636
   0.552079525232966   0.802079380361967   0.302079241569636
   0.802079525232966   0.802079380361967   0.302079241569636
   0.052079525232966   0.052079380361967   0.552079241569636
   0.302079525232966   0.052079380361967   0.552079241569636
   0.552079525232966   0.052079380361967   0.552079241569636
   0.802079525232966   0.052079380361967   0.552079241569636
   0.052079525232966   0.302079380361967   0.552079241569636
   0.302079525232966   0.302079380361967   0.552079241569636
   0.552079525232966   0.302079380361967   0.552079241569636
   0.802079525232966   0.302079380361967   0.552079241569636
   0.052079525232966   0.552079380361967   0.552079241569636
   0.302079525232966   0.552079380361967   0.552079241569636
   0.552079525232966   0.552079380361967   0.552079241569636
   0.802079525232966   0.552079380361967   0.552079241569636
   0.052079525232966   0.802079380361967   0.552079241569636
   0.302079525232966   0.802079380361967   0.552079241569636
   0.552079525232966   0.802079380361967   0.552079241569636
   0.802079525232966   0.802079380361967   0.552079241569636
   0.052079525232966   0.052079380361967   0.802079241569636
   0.302079525232966   0.052079380361967   0.802079241569636
   0.552079525232966   0.052079380361967   0.802079241569636
   0.802079525232966   0.052079380361967   0.802079241569636
   0.052079525232966   0.302079380361967   0.802079241569636
   0.302079525232966   0.302079380361967   0.802079241569636
   0.552079525232966   0.302079380361967   0.802079241569636
   0.802079525232966   0.302079380361967   0.802079241569636
   0.052079525232966   0.552079380361967   0.802079241569636
   0.302079525232966   0.552079380361967   0.802079241569636
   0.552079525232966   0.552079380361967   0.802079241569636
   0.802079525232966   0.552079380361967   0.802079241569636
   0.052079525232966   0.802079380361967   0.802079241569636
   0.302079525232966   0.802079380361967   0.802079241569636
   0.552079525232966   0.802079380361967   0.802079241569636
   0.802079525232966   0.802079380361967   0.802079241569636
   0.177079504244299   0.072920783210275   0.197920804554062
   0.427079504244299   0.072920783210275   0.197920804554062
   0.677079504244299   0.072920783210275   0.197920804554062
   0.927079504244299   0.072920783210275   0.197920804554062
   0.177079504244299   0.322920783210275   0.197920804554062
   0.427079504244299   0.322920783210275   0.197920804554062
   0.677079504244299   0.322920783210275   0.197920804554062
   0.927079504244299   0.322920783210275   0.197920804554062
   0.177079504244299   0.572920783210275   0.197920804554062
   0.427079504244299   0.572920783210275   0.197920804554062
   0.677079504244299   0.572920783210275   0.197920804554062
   0.927079504244299   0.572920783210275   0.197920804554062
   0.177079504244299   0.822920783210275   0.197920804554062
   0.427079504244299   0.822920783210275   0.197920804554062
   0.677079504244299   0.822920783210275   0.197920804554062
   0.927079504244299   0.822920783210275   0.197920804554062
   0.177079504244299   0.072920783210275   0.447920804554062
   0.427079504244299   0.072920783210275   0.447920804554062
   0.677079504244299   0.072920783210275   0.447920804554062
   0.927079504244299   0.072920783210275   0.447920804554062
   0.177079504244299   0.322920783210275   0.447920804554062
   0.427079504244299   0.322920783210275   0.447920804554062
   0.677079504244299   0.322920783210275   0.447920804554062
   0.927079504244299   0.322920783210275   0.447920804554062
   0.177079504244299   0.572920783210275   0.447920804554062
   0.427079504244299   0.572920783210275   0.447920804554062
   0.677079504244299   0.572920783210275   0.447920804554062
   0.927079504244299   0.572920783210275   0.447920804554062
   0.177079504244299   0.822920783210275   0.447920804554062
   0.427079504244299   0.822920783210275   0.447920804554062
   0.677079504244299   0.822920783210275   0.447920804554062
   0.927079504244299   0.822920783210275   0.447920804554062
   0.177079504244299   0.072920783210275   0.697920804554062
   0.427079504244299   0.072920783210275   0.697920804554062
   0.677079504244299   0.072920783210275   0.697920804554062
   0.927079504244299   0.072920783210275   0.697920804554062
   0.177079504244299   0.322920783210275   0.697920804554062
   0.427079504244299   0.322920783210275   0.697920804554062
   0.677079504244299   0.322920783210275   0.697920804554062
   0.927079504244299   0.322920783210275   0.697920804554062
   0.177079504244299   0.572920783210275   0.697920804554062
   0.427079504244299   0.572920783210275   0.697920804554062
   0.677079504244299   0.572920783210275   0.697920804554062
   0.927079504244299   0.572920783210275   0.697920804554062
   0.177079504244299   0.822920783210275   0.697920804554062
   0.427079504244299   0.822920783210275   0.697920804554062
   0.677079504244299   0.822920783210275   0.697920804554062
   0.927079504244299   0.822920783210275   0.697920804554062
   0.177079504244299   0.072920783210275   0.947920804554062
   0.427079504244299   0.072920783210275   0.947920804554062
   0.677079504244299   0.072920783210275   0.947920804554062
   0.927079504244299   0.072920783210275   0.947920804554062
   0.177079504244299   0.322920783210275   0.947920804554062
   0.427079504244299   0.322920783210275   0.947920804554062
   0.677079504244299   0.322920783210275   0.947920804554062
   0.927079504244299   0.322920783210275   0.947920804554062
   0.177079504244299   0.572920783210275   0.947920804554062
   0.427079504244299   0.572920783210275   0.947920804554062
   0.677079504244299   0.572920783210275   0.947920804554062
   0.927079504244299   0.572920783210275   0.947920804554062
   0.177079504244299   0.822920783210275   0.947920804554062
   0.427079504244299   0.822920783210275   0.947920804554062
   0.677079504244299   0.822920783210275   0.947920804554062
   0.927079504244299   0.822920783210275   0.947920804554062
   0.197921304005076   0.177079294181166   0.072920529087327
   0.447921304005076   0.177079294181166   0.072920529087327
   0.697921304005076   0.177079294181166   0.072920529087327
   0.947921304005076   0.177079294181166   0.072920529087327
   0.197921304005076   0.427079294181166   0.072920529087327
   0.447921304005076   0.427079294181166   0.072920529087327
   0.697921304005076   0.427079294181166   0.072920529087327
   0.947921304005076   0.427079294181166   0.072920529087327
   0.197921304005076   0.677079294181166   0.072920529087327
   0.447921304005076   0.677079294181166   0.072920529087327
   0.697921304005076   0.677079294181166   0.072920529087327
   0.947921304005076   0.677079294181166   0.072920529087327
   0.197921304005076   0.927079294181166   0.072920529087327
   0.447921304005076   0.927079294181166   0.072920529087327
   0.697921304005076   0.927079294181166   0.072920529087327
   0.947921304005076   0.927079294181166   0.072920529087327
   0.197921304005076   0.177079294181166   0.322920529087327
   0.447921304005076   0.177079294181166   0.322920529087327
   0.697921304005076   0.177079294181166   0.322920529087327
   0.947921304005076   0.177079294181166   0.322920529087327
   0.197921304005076   0.427079294181166   0.322920529087327
   0.447921304005076   0.427079294181166   0.322920529087327
   0.697921304005076   0.427079294181166   0.322920529087327
   0.947921304005076   0.427079294181166   0.322920529087327
   0.197921304005076   0.677079294181166   0.322920529087327
   0.447921304005076   0.677079294181166   0.322920529087327
   0.697921304005076   0.677079294181166   0.322920529087327
   0.947921304005076   0.677079294181166   0.322920529087327
   0.197921304005076   0.927079294181166   0.322920529087327
   0.447921304005076   0.927079294181166   0.322920529087327
   0.697921304005076   0.927079294181166   0.322920529087327
   0.947921304005076   0.927079294181166   0.322920529087327
   0.197921304005076   0.177079294181166   0.572920529087327
   0.447921304005076   0.177079294181166   0.572920529087327
   0.697921304005076   0.177079294181166   0.572920529087327
   0.947921304005076   0.177079294181166   0.572920529087327
   0.197921304005076   0.427079294181166   0.572920529087327
   0.447921304005076   0.427079294181166   0.572920529087327
   0.697921304005076   0.427079294181166   0.572920529087327
   0.947921304005076   0.427079294181166   0.572920529087327
   0.197921304005076   0.677079294181166   0.572920529087327
   0.447921304005076   0.677079294181166   0.572920529087327
   0.697921304005076   0.677079294181166   0.572920529087327
   0.947921304005076   0.677079294181166   0.572920529087327
   0.197921304005076   0.927079294181166   0.572920529087327
   0.447921304005076   0.927079294181166   0.572920529087327
   0.697921304005076   0.927079294181166   0.572920529087327
   0.947921304005076   0.927079294181166   0.572920529087327
   0.197921304005076   0.177079294181166   0.822920529087327
   0.447921304005076   0.177079294181166   0.822920529087327
   0.697921304005076   0.177079294181166   0.822920529087327
   0.947921304005076   0.177079294181166   0.822920529087327
   0.197921304005076   0.427079294181166   0.822920529087327
   0.447921304005076   0.427079294181166   0.822920529087327
   0.697921304005076   0.427079294181166   0.822920529087327
   0.947921304005076   0.427079294181166   0.822920529087327
   0.197921304005076   0.677079294181166   0.822920529087327
   0.447921304005076   0.677079294181166   0.822920529087327
   0.697921304005076   0.677079294181166   0.822920529087327
   0.947921304005076   0.677079294181166   0.822920529087327
   0.197921304005076   0.927079294181166   0.822920529087327
   0.447921304005076   0.927079294181166   0.822920529087327
   0.697921304005076   0.927079294181166   0.822920529087327
   0.947921304005076   0.927079294181166   0.822920529087327
   0.072921343054002   0.197920944730688   0.177079398409962
   0.322921343054002   0.197920944730688   0.177079398409962
   0.572921343054002   0.197920944730688   0.177079398409962
   0.822921343054002   0.197920944730688   0.177079398409962
   0.072921343054002   0.447920944730688   0.177079398409962
   0.322921343054002   0.447920944730688   0.177079398409962
   0.572921343054002   0.447920944730688   0.177079398409962
   0.822921343054002   0.447920944730688   0.177079398409962
   0.072921343054002   0.697920944730688   0.177079398409962
   0.322921343054002   0.697920944730688   0.177079398409962
   0.572921343054002   0.697920944730688   0.177079398409962
   0.822921343054002   0.697920944730688   0.177079398409962
   0.072921343054002   0.947920944730688   0.177079398409962
   0.322921343054002   0.947920944730688   0.177079398409962
   0.572921343054002   0.947920944730688   0.177079398409962
   0.822921343054002   0.947920944730688   0.177079398409962
   0.072921343054002   0.197920944730688   0.427079398409962
   0.322921343054002   0.197920944730688   0.427079398409962
   0.572921343054002   0.197920944730688   0.427079398409962
   0.822921343054002   0.197920944730688   0.427079398409962
   0.072921343054002   0.447920944730688   0.427079398409962
   0.322921343054002   0.447920944730688   0.427079398409962
   0.572921343054002   0.447920944730688   0.427079398409962
   0.822921343054002   0.447920944730688   0.427079398409962
   0.072921343054002   0.697920944730688   0.427079398409962
   0.322921343054002   0.697920944730688   0.427079398409962
   0.572921343054002   0.697920944730688   0.427079398409962
   0.822921343054002   0.697920944730688   0.427079398409962
   0.072921343054002   0.947920944730688   0.427079398409962
   0.322921343054002   0.947920944730688   0.427079398409962
   0.572921343054002   0.947920944730688   0.427079398409962
   0.822921343054002   0.947920944730688   0.427079398409962
   0.072921343054002   0.197920944730688   0.677079398409962
   0.322921343054002   0.197920944730688   0.677079398409962
   0.572921343054002   0.197920944730688   0.677079398409962
   0.822921343054002   0.197920944730688   0.677079398409962
   0.072921343054002   0.447920944730688   0.677079398409962
   0.322921343054002   0.447920944730688   0.677079398409962
   0.572921343054002   0.447920944730688   0.677079398409962
   0.822921343054002   0.447920944730688   0.677079398409962
   0.072921343054002   0.697920944730688   0.677079398409962
   0.322921343054002   0.697920944730688   0.677079398409962
   0.572921343054002   0.697920944730688   0.677079398409962
   0.822921343054002   0.697920944730688   0.677079398409962
   0.072921343054002   0.947920944730688   0.677079398409962
   0.322921343054002   0.947920944730688   0.677079398409962
   0.572921343054002   0.947920944730688   0.677079398409962
   0.822921343054002   0.947920944730688   0.677079398409962
   0.072921343054002   0.197920944730688   0.927079398409962
   0.322921343054002   0.197920944730688   0.927079398409962
   0.572921343054002   0.197920944730688   0.927079398409962
   0.822921343054002   0.197920944730688   0.927079398409962
   0.072921343054002   0.447920944730688   0.927079398409962
   0.322921343054002   0.447920944730688   0.927079398409962
   0.572921343054002   0.447920944730688   0.927079398409962
   0.822921343054002   0.447920944730688   0.927079398409962
   0.072921343054002   0.697920944730688   0.927079398409962
   0.322921343054002   0.697920944730688   0.927079398409962
   0.572921343054002   0.697920944730688   0.927079398409962
   0.822921343054002   0.697920944730688   0.927079398409962
   0.072921343054002   0.947920944730688   0.927079398409962
   0.322921343054002   0.947920944730688   0.927079398409962
   0.572921343054002   0.947920944730688   0.927079398409962
   0.822921343054002   0.947920944730688   0.927079398409962
   0.092038368658800   0.068565340067027   0.027140758943453
   0.342038368658800   0.068565340067027   0.027140758943453
   0.592038368658800   0.068565340067027   0.027140758943453
   0.842038368658800   0.068565340067027   0.027140758943453
   0.092038368658800   0.318565340067027   0.027140758943453
   0.342038368658800   0.318565340067027   0.027140758943453
   0.592038368658800   0.318565340067027   0.027140758943453
   0.842038368658800   0.318565340067027   0.027140758943453
   0.092038368658800   0.568565340067027   0.027140758943453
   0.342038368658800   0.568565340067027   0.027140758943453
   0.592038368658800   0.568565340067027   0.027140758943453
   0.842038368658800   0.568565340067027   0.027140758943453
   0.092038368658800   0.818565340067027   0.027140758943453
   0.342038368658800   0.818565340067027   0.027140758943453
   0.592038368658800   0.818565340067027   0.027140758943453
   0.842038368658800   0.818565340067027   0.027140758943453
   0.092038368658800   0.068565340067027   0.277140758943453
   0.342038368658800   0.068565340067027   0.277140758943453
   0.592038368658800   0.068565340067027   0.277140758943453
   0.842038368658800   0.068565340067027   0.277140758943453
   0.092038368658800   0.318565340067027   0.277140758943453
   0.342038368658800   0.318565340067027   0.277140758943453
   0.592038368658800   0.318565340067027   0.277140758943453
   0.842038368658800   0.318565340067027   0.277140758943453
   0.092038368658800   0.568565340067027   0.277140758943453
   0.342038368658800   0.568565340067027   0.277140758943453
   0.592038368658800   0.568565340067027   0.277140758943453
   0.842038368658800   0.568565340067027   0.277140758943453
   0.092038368658800   0.818565340067027   0.277140758943453
   0.342038368658800   0.818565340067027   0.277140758943453
   0.592038368658800   0.818565340067027   0.277140758943453
   0.842038368658800   0.818565340067027   0.277140758943453
   0.092038368658800   0.068565340067027   0.527140758943453
   0.342038368658800   0.068565340067027   0.527140758943453
   0.592038368658800   0.068565340067027   0.527140758943453
   0.842038368658800   0.068565340067027   0.527140758943453
   0.092038368658800   0.318565340067027   0.527140758943453
   0.342038368658800   0.318565340067027   0.527140758943453
   0.592038368658800   0.318565340067027   0.527140758943453
   0.842038368658800   0.318565340067027   0.527140758943453
   0.092038368658800   0.568565340067027   0.527140758943453
   0.342038368658800   0.568565340067027   0.527140758943453
   0.592038368658800   0.568565340067027   0.527140758943453
   0.842038368658800   0.568565340067027   0.527140758943453
   0.092038368658800   0.818565340067027   0.527140758943453
   0.342038368658800   0.818565340067027   0.527140758943453
   0.592038368658800   0.818565340067027   0.527140758943453
   0.842038368658800   0.818565340067027   0.527140758943453
   0.092038368658800   0.068565340067027   0.777140758943453
   0.342038368658800   0.068565340067027   0.777140758943453
   0.592038368658800   0.068565340067027   0.777140758943453
   0.842038368658800   0.068565340067027   0.777140758943453
   0.092038368658800   0.318565340067027   0.777140758943453
   0.342038368658800   0.318565340067027   0.777140758943453
   0.592038368658800   0.318565340067027   0.777140758943453
   0.842038368658800   0.318565340067027   0.777140758943453
   0.092038368658800   0.568565340067027   0.777140758943453
   0.342038368658800   0.568565340067027   0.777140758943453
   0.592038368658800   0.568565340067027   0.777140758943453
   0.842038368658800   0.568565340067027   0.777140758943453
   0.092038368658800   0.818565340067027   0.777140758943453
   0.342038368658800   0.818565340067027   0.777140758943453
   0.592038368658800   0.818565340067027   0.777140758943453
   0.842038368658800   0.818565340067027   0.777140758943453
   0.068565332980431   0.027139636707453   0.092039302211377
   0.318565332980431   0.027139636707453   0.092039302211377
   0.568565332980431   0.027139636707453   0.092039302211377
   0.818565332980431   0.027139636707453   0.092039302211377
   0.068565332980431   0.277139636707453   0.092039302211377
   0.318565332980431   0.277139636707453   0.092039302211377
   0.568565332980431   0.277139636707453   0.092039302211377
   0.818565332980431   0.277139636707453   0.092039302211377
   0.068565332980431   0.527139636707453   0.092039302211377
   0.318565332980431   0.527139636707453   0.092039302211377
   0.568565332980431   0.527139636707453   0.092039302211377
   0.818565332980431   0.527139636707453   0.092039302211377
   0.068565332980431   0.777139636707453   0.092039302211377
   0.318565332980431   0.777139636707453   0.092039302211377
   0.568565332980431   0.777139636707453   0.092039302211377
   0.818565332980431   0.777139636707453   0.092039302211377
   0.068565332980431   0.027139636707453   0.342039302211377
   0.318565332980431   0.027139636707453   0.342039302211377
   0.568565332980431   0.027139636707453   0.342039302211377
   0.818565332980431   0.027139636707453   0.342039302211377
   0.068565332980431   0.277139636707453   0.342039302211377
   0.318565332980431   0.277139636707453   0.342039302211377
   0.568565332980431   0.277139636707453   0.342039302211377
   0.818565332980431   0.277139636707453   0.342039302211377
   0.068565332980431   0.527139636707453   0.342039302211377
   0.318565332980431   0.527139636707453   0.342039302211377
   0.568565332980431   0.527139636707453   0.342039302211377
   0.818565332980431   0.527139636707453   0.342039302211377
   0.068565332980431   0.777139636707453   0.342039302211377
   0.318565332980431   0.777139636707453   0.342039302211377
   0.568565332980431   0.777139636707453   0.342039302211377
   0.818565332980431   0.777139636707453   0.342039302211377
   0.068565332980431   0.027139636707453   0.592039302211377
   0.318565332980431   0.027139636707453   0.592039302211377
   0.568565332980431   0.027139636707453   0.592039302211377
   0.818565332980431   0.027139636707453   0.592039302211377
   0.068565332980431   0.277139636707453   0.592039302211377
   0.318565332980431   0.277139636707453   0.592039302211377
   0.568565332980431   0.277139636707453   0.592039302211377
   0.818565332980431   0.277139636707453   0.592039302211377
   0.068565332980431   0.527139636707453   0.592039302211377
   0.318565332980431   0.527139636707453   0.592039302211377
   0.568565332980431   0.527139636707453   0.592039302211377
   0.818565332980431   0.527139636707453   0.592039302211377
   0.068565332980431   0.777139636707453   0.592039302211377
   0.318565332980431   0.777139636707453   0.592039302211377
   0.568565332980431   0.777139636707453   0.592039302211377
   0.818565332980431   0.777139636707453   0.592039302211377
   0.068565332980431   0.027139636707453   0.842039302211377
   0.318565332980431   0.027139636707453   0.842039302211377
   0.568565332980431   0.027139636707453   0.842039302211377
   0.818565332980431   0.027139636707453   0.842039302211377
   0.068565332980431   0.277139636707453   0.842039302211377
   0.318565332980431   0.277139636707453   0.842039302211377
   0.568565332980431   0.277139636707453   0.842039302211377
   0.818565332980431   0.277139636707453   0.842039302211377
   0.068565332980431   0.527139636707453   0.842039302211377
   0.318565332980431   0.527139636707453   0.842039302211377
   0.568565332980431   0.527139636707453   0.842039302211377
   0.818565332980431   0.527139636707453   0.842039302211377
   0.068565332980431   0.777139636707453   0.842039302211377
   0.318565332980431   0.777139636707453   0.842039302211377
   0.568565332980431   0.777139636707453   0.842039302211377
   0.818565332980431   0.777139636707453   0.842039302211377
   0.027139079365359   0.092037791215189   0.068565708848381
   0.277139079365359   0.092037791215189   0.068565708848381
   0.527139079365359   0.092037791215189   0.068565708848381
   0.777139079365359   0.092037791215189   0.068565708848381
   0.027139079365359   0.342037791215189   0.068565708848381
   0.277139079365359   0.342037791215189   0.068565708848381
   0.527139079365359   0.342037791215189   0.068565708848381
   0.777139079365359   0.342037791215189   0.068565708848381
   0.027139079365359   0.592037791215189   0.068565708848381
   0.277139079365359   0.592037791215189   0.068565708848381
   0.527139079365359   0.592037791215189   0.068565708848381
   0.777139079365359   0.592037791215189   0.068565708848381
   0.027139079365359   0.842037791215189   0.068565708848381
   0.277139079365359   0.842037791215189   0.068565708848381
   0.527139079365359   0.842037791215189   0.068565708848381
   0.777139079365359   0.842037791215189   0.068565708848381
   0.027139079365359   0.092037791215189   0.318565708848381
   0.277139079365359   0.092037791215189   0.318565708848381
   0.527139079365359   0.092037791215189   0.318565708848381
   0.777139079365359   0.092037791215189   0.318565708848381
   0.027139079365359   0.342037791215189   0.318565708848381
   0.277139079365359   0.342037791215189   0.318565708848381
   0.527139079365359   0.342037791215189   0.318565708848381
   0.777139079365359   0.342037791215189   0.318565708848381
   0.027139079365359   0.592037791215189   0.318565708848381
   0.277139079365359   0.592037791215189   0.318565708848381
   0.527139079365359   0.592037791215189   0.318565708848381
   0.777139079365359   0.592037791215189   0.318565708848381
   0.027139079365359   0.842037791215189   0.318565708848381
   0.277139079365359   0.842037791215189   0.318565708848381
   0.527139079365359   0.842037791215189   0.318565708848381
   0.777139079365359   0.842037791215189   0.318565708848381
   0.027139079365359   0.092037791215189   0.568565708848381
   0.277139079365359   0.092037791215189   0.568565708848381
   0.527139079365359   0.092037791215189   0.568565708848381
   0.777139079365359   0.092037791215189   0.568565708848381
   0.027139079365359   0.342037791215189   0.568565708848381
   0.277139079365359   0.342037791215189   0.568565708848381
   0.527139079365359   0.342037791215189   0.568565708848381
   0.777139079365359   0.342037791215189   0.568565708848381
   0.027139079365359   0.592037791215189   0.568565708848381
   0.277139079365359   0.592037791215189   0.568565708848381
   0.527139079365359   0.592037791215189   0.568565708848381
   0.777139079365359   0.592037791215189   0.568565708848381
   0.027139079365359   0.842037791215189   0.568565708848381
   0.277139079365359   0.842037791215189   0.568565708848381
   0.527139079365359   0.842037791215189   0.568565708848381
   0.777139079365359   0.842037791215189   0.568565708848381
   0.027139079365359   0.092037791215189   0.818565708848381
   0.277139079365359   0.092037791215189   0.818565708848381
   0.527139079365359   0.092037791215189   0.818565708848381
   0.777139079365359   0.092037791215189   0.818565708848381
   0.027139079365359   0.342037791215189   0.818565708848381
   0.277139079365359   0.342037791215189   0.818565708848381
   0.527139079365359   0.342037791215189   0.818565708848381
   0.777139079365359   0.342037791215189   0.818565708848381
   0.027139079365359   0.592037791215189   0.818565708848381
   0.277139079365359   0.592037791215189   0.818565708848381
   0.527139079365359   0.592037791215189   0.818565708848381
   0.777139079365359   0.592037791215189   0.818565708848381
   0.027139079365359   0.842037791215189   0.818565708848381
   0.277139079365359   0.842037791215189   0.818565708848381
   0.527139079365359   0.842037791215189   0.818565708848381
   0.777139079365359   0.842037791215189   0.818565708848381
   0.217038321193881   0.056434865597416   0.222859241056547
   0.467038321193881   0.056434865597416   0.222859241056547
   0.717038321193881   0.056434865597416   0.222859241056547
   0.967038321193881   0.056434865597416   0.222859241056547
   0.217038321193881   0.306434865597416   0.222859241056547
   0.467038321193881   0.306434865597416   0.222859241056547
   0.717038321193881   0.306434865597416   0.222859241056547
   0.967038321193881   0.306434865597416   0.222859241056547
   0.217038321193881   0.556434865597416   0.222859241056547
   0.467038321193881   0.556434865597416   0.222859241056547
   0.717038321193881   0.556434865597416   0.222859241056547
   0.967038321193881   0.556434865597416   0.222859241056547
   0.217038321193881   0.806434865597416   0.222859241056547
   0.467038321193881   0.806434865597416   0.222859241056547
   0.717038321193881   0.806434865597416   0.222859241056547
   0.967038321193881   0.806434865597416   0.222859241056547
   0.217038321193881   0.056434865597416   0.472859241056547
   0.467038321193881   0.056434865597416   0.472859241056547
   0.717038321193881   0.056434865597416   0.472859241056547
   0.967038321193881   0.056434865597416   0.472859241056547
   0.217038321193881   0.306434865597416   0.472859241056547
   0.467038321193881   0.306434865597416   0.472859241056547
   0.717038321193881   0.306434865597416   0.472859241056547
   0.967038321193881   0.306434865597416   0.472859241056547
   0.217038321193881   0.556434865597416   0.472859241056547
   0.467038321193881   0.556434865597416   0.472859241056547
   0.717038321193881   0.556434865597416   0.472859241056547
   0.967038321193881   0.556434865597416   0.472859241056547
   0.217038321193881   0.806434865597416   0.472859241056547
   0.467038321193881   0.806434865597416   0.472859241056547
   0.717038321193881   0.806434865597416   0.472859241056547
   0.967038321193881   0.806434865597416   0.472859241056547
   0.217038321193881   0.056434865597416   0.722859241056547
   0.467038321193881   0.056434865597416   0.722859241056547
   0.717038321193881   0.056434865597416   0.722859241056547
   0.967038321193881   0.056434865597416   0.722859241056547
   0.217038321193881   0.306434865597416   0.722859241056547
   0.467038321193881   0.306434865597416   0.722859241056547
   0.717038321193881   0.306434865597416   0.722859241056547
   0.967038321193881   0.306434865597416   0.722859241056547