super cell
        1.0000000000
   5.119049893672304   0.000000000000000   0.000000000000000
   0.000000000000000   5.119102523461811   0.000000000000000
   0.000000000000000   0.000000000000000   5.119074225009736
    4   12
 Direct
   0.208318100931864   0.208317521447868   0.208316966278544
   0.708318016977196   0.291683132841100   0.791683218216248
   0.791685216020304   0.708317176724664   0.291682116349308
   0.291685372216008   0.791683778922752   0.708317593639848
   0.368153474635200   0.274261360268108   0.108563035773812
   0.274261331921724   0.108558546829812   0.368157208845508
   0.108556317461436   0.368151164860756   0.274262835393524
   0.868153284775524   0.225739462389664   0.891436964226188
   0.774261539897668   0.391442260667704   0.631842579708276
   0.608556377953668   0.131849637001092   0.725737034260132
   0.725740248737788   0.608558947480944   0.131843435021972
   0.891443682538560   0.868150338396304   0.225738480250508
   0.391444174872248   0.631849855714992   0.774261425527340
   0.131847197758340   0.725739467677644   0.608562172907852
   0.225740748041456   0.891441453170196   0.868156107666804
   0.631846578677752   0.774261185134096   0.391437507756636
