 C  H  O                                
   1.0000000000000000     
    13.2561514117769548   -0.0000069670849291    0.0000002078851140
    -0.0000020822482043    3.9230592954074250   -0.0000008123880947
     0.0000000971469857   -0.0000011958995242    5.8303817411225678
   C    H    O 
     8    16     8
Direct
  0.3367945815439413  0.6931593242456842  0.2097466606413931
  0.6632052947898543  0.3068454456775953  0.7097456491998244
  0.8367928796508579  0.8068438660557149  0.2097465402724481
  0.1632067650507310  0.1931612520129988  0.7097476048172382
  0.4113256932292870  0.6144099511379579  0.3975499050533173
  0.5886738920636105  0.3855943810573947  0.8975495124360791
  0.9113245024000491  0.8855929446261328  0.3975502552612795
  0.0886750199726194  0.1144113786303649  0.8975510454068996
  0.3232350670872677  0.9399486245059450  0.9233376670984583
  0.6767646034723072  0.0600558274005536  0.4233366635938580
  0.8232332848175403  0.5600554432571982  0.9233367255343694
  0.1767663112705620  0.4399501661890284  0.4233378692928227
  0.3742524447447764  0.4782504982932707  0.5363155740515140
  0.6257472402643032  0.5217535802086317  0.0363147892816968
  0.8742513690117875  0.0217525493887649  0.5363154247047177
  0.1257481859760858  0.9782517998403577  0.0363161484739436
  0.4721544051794950  0.4575439429295187  0.3276237123896522
  0.5278451936244366  0.5424601795463388  0.8276234474892803
  0.9721534998092025  0.0424583648700150  0.3276240930257543
  0.0278462270254565  0.9575458616603356  0.8276245848240649
  0.4455228761050734  0.8493779869327724  0.4605944966584943
  0.5544768661025969  0.1506260889132207  0.9605938783882237
  0.9455213567939893  0.6506247410862755  0.4605948437885914
  0.0544780624677514  0.3493791887099249  0.9605957335545838
  0.3762702575346921  0.8859704906970762  0.0409508542100951
  0.6237293727932069  0.1140332164976030  0.5409497371780319
  0.8762683279016770  0.6140318925434158  0.0409503013744086
  0.1237311704999513  0.3859732455133340  0.5409518839198455
  0.2484319315313641  0.5937648993252864  0.2032862093806784
  0.7515672252472712  0.4062397993246663  0.7032848450693052
  0.7484306136371117  0.9062380019636933  0.2032859773060807
  0.2515692852540781  0.0937674757212648  0.7032870576709414

  0.00000000E+00  0.00000000E+00  0.00000000E+00
  0.00000000E+00  0.00000000E+00  0.00000000E+00
  0.00000000E+00  0.00000000E+00  0.00000000E+00
  0.00000000E+00  0.00000000E+00  0.00000000E+00
  0.00000000E+00  0.00000000E+00  0.00000000E+00
  0.00000000E+00  0.00000000E+00  0.00000000E+00
  0.00000000E+00  0.00000000E+00  0.00000000E+00
  0.00000000E+00  0.00000000E+00  0.00000000E+00
  0.00000000E+00  0.00000000E+00  0.00000000E+00
  0.00000000E+00  0.00000000E+00  0.00000000E+00
  0.00000000E+00  0.00000000E+00  0.00000000E+00
  0.00000000E+00  0.00000000E+00  0.00000000E+00
  0.00000000E+00  0.00000000E+00  0.00000000E+00
  0.00000000E+00  0.00000000E+00  0.00000000E+00
  0.00000000E+00  0.00000000E+00  0.00000000E+00
  0.00000000E+00  0.00000000E+00  0.00000000E+00
  0.00000000E+00  0.00000000E+00  0.00000000E+00
  0.00000000E+00  0.00000000E+00  0.00000000E+00
  0.00000000E+00  0.00000000E+00  0.00000000E+00
  0.00000000E+00  0.00000000E+00  0.00000000E+00
  0.00000000E+00  0.00000000E+00  0.00000000E+00
  0.00000000E+00  0.00000000E+00  0.00000000E+00
  0.00000000E+00  0.00000000E+00  0.00000000E+00
  0.00000000E+00  0.00000000E+00  0.00000000E+00
  0.00000000E+00  0.00000000E+00  0.00000000E+00
  0.00000000E+00  0.00000000E+00  0.00000000E+00
  0.00000000E+00  0.00000000E+00  0.00000000E+00
  0.00000000E+00  0.00000000E+00  0.00000000E+00
  0.00000000E+00  0.00000000E+00  0.00000000E+00
  0.00000000E+00  0.00000000E+00  0.00000000E+00
  0.00000000E+00  0.00000000E+00  0.00000000E+00
  0.00000000E+00  0.00000000E+00  0.00000000E+00
