 C  O                                   
   1.0000000000000000     
    20.0000000000000000    0.0000000000000000    0.0000000000000000
     0.0000000000000000   20.0000000000000000    0.0000000000000000
     0.0000000000000000    0.0000000000000000   20.0000000000000000
   C    O 
     1     2
Direct
  0.2405794999999955  0.2406258333333398  0.2811455000000151
  0.2746111473004189  0.2065781648170425  0.2478579393278033
  0.2065478526995864  0.2746735018496228  0.3144330606721773
