 C  H  N  O                             
   1.0000000000000000     
    25.0000000000000000    0.0000000000000000    0.0000000000000000
     0.0000000000000000   25.0000000000000000    0.0000000000000000
     0.0000000000000000    0.0000000000000000   22.0000000000000000
   C    H    N    O 
     4     5     3     1
Direct
  0.2107225694660499  0.2887776227258172  0.2550861772011075
  0.2882479259263278  0.2498044943470816  0.2143226463443142
  0.3096701047083030  0.3001809324167155  0.1938799119447125
  0.2795879193322861  0.3444592172823278  0.2053863303068795
  0.2088599160925355  0.3717791753895412  0.2437658207567281
  0.3029979389197237  0.1698438574452581  0.2224855790092377
  0.3547684417360983  0.2053609361047606  0.1896629847730509
  0.3474533008674427  0.3029526732313386  0.1703430312587884
  0.2915751678234173  0.3843668620189149  0.1922157799777864
  0.2319218709947748  0.3395076293055368  0.2347224537285229
  0.2419489349109725  0.2445854186872225  0.2431955739151519
  0.3161596915433833  0.2037350506729325  0.2025336535364772
  0.1674322176786305  0.2884713303724808  0.2808323299743816

  0.00000000E+00  0.00000000E+00  0.00000000E+00
  0.00000000E+00  0.00000000E+00  0.00000000E+00
  0.00000000E+00  0.00000000E+00  0.00000000E+00
  0.00000000E+00  0.00000000E+00  0.00000000E+00
  0.00000000E+00  0.00000000E+00  0.00000000E+00
  0.00000000E+00  0.00000000E+00  0.00000000E+00
  0.00000000E+00  0.00000000E+00  0.00000000E+00
  0.00000000E+00  0.00000000E+00  0.00000000E+00
  0.00000000E+00  0.00000000E+00  0.00000000E+00
  0.00000000E+00  0.00000000E+00  0.00000000E+00
  0.00000000E+00  0.00000000E+00  0.00000000E+00
  0.00000000E+00  0.00000000E+00  0.00000000E+00
  0.00000000E+00  0.00000000E+00  0.00000000E+00
