 C  H  N  O                             
   1.0000000000000000     
    25.0000000000000000    0.0000000000000000    0.0000000000000000
     0.0000000000000000   25.0000000000000000    0.0000000000000000
     0.0000000000000000    0.0000000000000000   22.0000000000000000
   C    H    N    O 
     4     5     3     1
Direct
  0.2107225694660499  0.2887776227258199  0.2550861772011094
  0.2882479259263306  0.2498044943470847  0.2143226463443134
  0.3096701047083008  0.3001809324167121  0.1938799119447093
  0.2795879193322828  0.3444592172823299  0.2053863303068830
  0.2088599160925338  0.3717791753895382  0.2437658207567298
  0.3029979389197262  0.1698438574452592  0.2224855790092386
  0.3547684417360969  0.2053609361047618  0.1896629847730476
  0.3474533008674395  0.3029526732313403  0.1703430312587900
  0.2915751678234152  0.3843668620189165  0.1922157799777872
  0.2319218709947775  0.3395076293055392  0.2347224537285236
  0.2419489349109704  0.2445854186872208  0.2431955739151511
  0.3161596915433828  0.2037350506729350  0.2025336535364800
  0.1674322176786318  0.2884713303724776  0.2811959663380190

  0.00000000E+00  0.00000000E+00  0.00000000E+00
  0.00000000E+00  0.00000000E+00  0.00000000E+00
  0.00000000E+00  0.00000000E+00  0.00000000E+00
  0.00000000E+00  0.00000000E+00  0.00000000E+00
  0.00000000E+00  0.00000000E+00  0.00000000E+00
  0.00000000E+00  0.00000000E+00  0.00000000E+00
  0.00000000E+00  0.00000000E+00  0.00000000E+00
  0.00000000E+00  0.00000000E+00  0.00000000E+00
  0.00000000E+00  0.00000000E+00  0.00000000E+00
  0.00000000E+00  0.00000000E+00  0.00000000E+00
  0.00000000E+00  0.00000000E+00  0.00000000E+00
  0.00000000E+00  0.00000000E+00  0.00000000E+00
  0.00000000E+00  0.00000000E+00  0.00000000E+00
