 C  O  H 
        1.0000000000
  11.435992312330685   0.000000192968673   0.087189975975359
   0.000000454992512  13.186775394185752  -0.000000545190781
  -1.084164966771866  -0.000000369456647  11.269151858856704
   72   32   64
 Direct
   0.155637277116942   0.277412502496105   0.067578559318809
   0.155637277116942   0.777412502496105   0.067578559318809
   0.844362689996256   0.027412507817609   0.432421357084168
   0.844362689996256   0.527412507817609   0.432421357084168
   0.844362680236114   0.222587447547333   0.932421358459080
   0.844362680236114   0.722587447547333   0.932421358459080
   0.155637273080146   0.472587454706365   0.567578561372248
   0.155637273080146   0.972587454706365   0.567578561372248
   0.249175804885240   0.238424328097360   0.007725449451281
   0.249175804885240   0.738424328097360   0.007725449451281
   0.750824171788407   0.488424339786091   0.492274473068125
   0.750824171788407   0.988424339786091   0.492274473068125
   0.750824156898002   0.261575623342042   0.992274473533950
   0.750824156898002   0.761575623342042   0.992274473533950
   0.249175795550785   0.011575617991306   0.507725447606383
   0.249175795550785   0.511575617991306   0.507725447606383
   0.301459944228931   0.145898802782222   0.039539547156834
   0.301459944228931   0.645898802782222   0.039539547156834
   0.698540035834800   0.395898814160950   0.460460372418225
   0.698540035834800   0.895898814160950   0.460460372418225
   0.698540014208072   0.354101146872072   0.960460375135527
   0.698540014208072   0.854101146872072   0.960460375135527
   0.301459932568287   0.104101143758254   0.539539545613032
   0.301459932568287   0.604101143758254   0.539539545613032
   0.262662563609302   0.090334767099884   0.133700989048343
   0.262662563609302   0.590334767099884   0.133700989048343
   0.737337409933620   0.340334771469230   0.366298920872585
   0.737337409933620   0.840334771469230   0.366298920872585
   0.737337385873090   0.409665178856114   0.866298926126964
   0.737337385873090   0.909665178856114   0.866298926126964
   0.262662556298770   0.159665190596456   0.633700992999760
   0.262662556298770   0.659665190596456   0.633700992999760
   0.170906657009127   0.127435629545039   0.195310196811781
   0.170906657009127   0.627435629545039   0.195310196811781
   0.829093307757805   0.377435626974346   0.304689707401907
   0.829093307757805   0.877435626974346   0.304689707401907
   0.829093288817043   0.372564315695554   0.804689713829798
   0.829093288817043   0.872564315695554   0.804689713829798
   0.170906654592284   0.122564339477116   0.695310204435195
   0.170906654592284   0.622564339477116   0.695310204435195
   0.117955087194756   0.219353441319388   0.161923570945159
   0.117955087194756   0.719353441319388   0.161923570945159
   0.882044875173057   0.469353438558542   0.338076337036465
   0.882044875173057   0.969353438558542   0.338076337036465
   0.882044863000505   0.280646506169268   0.838076341536754
   0.882044863000505   0.780646506169268   0.838076341536754
   0.117955085481724   0.030646528094747   0.661923576909819
   0.117955085481724   0.530646528094747   0.661923576909819
   0.091974104315374   0.374391778577669   0.039068930255330
   0.091974104315374   0.874391778577669   0.039068930255330
   0.908025857520762   0.124391785095462   0.460930985343378
   0.908025857520762   0.624391785095462   0.460930985343378
   0.908025852671338   0.125608170740838   0.960930984819251
   0.908025852671338   0.625608170740838   0.960930984819251
   0.091974103406843   0.375608178166592   0.539068933967825
   0.091974103406843   0.875608178166592   0.539068933967825
   0.372074345810451   0.367448135576219   0.935765890270567
   0.372074345810451   0.867448135576219   0.935765890270567
   0.627925621428327   0.117448146628892   0.564234061207433
   0.627925621428327   0.617448146628892   0.564234061207433
   0.627925619205893   0.132551819338215   0.064234044568855
   0.627925619205893   0.632551819338215   0.064234044568855
   0.372074348188486   0.382551803979511   0.435765880501631
   0.372074348188486   0.882551803979511   0.435765880501631
   0.403785425568529   0.418038819765386   0.823771225897969
   0.403785425568529   0.918038819765386   0.823771225897969
   0.596214501355069   0.168038799134263   0.676228740895634
   0.596214501355069   0.668038799134263   0.676228740895634
   0.596214534165426   0.081961146360550   0.176228714095421
   0.596214534165426   0.581961146360550   0.176228714095421
   0.403785444991501   0.331961119308355   0.323771212269265
   0.403785444991501   0.831961119308355   0.323771212269265
   0.125890929822293   0.426586780719927   0.945808954238337
   0.125890929822293   0.926586780719927   0.945808954238337
   0.874109033282182   0.176586798523386   0.554190964974667
   0.874109033282182   0.676586798523386   0.554190964974667
   0.874109026160737   0.073413166943709   0.054190959004080
   0.874109026160737   0.573413166943709   0.054190959004080
   0.125890930147977   0.323413161554845   0.445808958105931
   0.125890930147977   0.823413161554845   0.445808958105931
   0.012079702629218   0.404493896175509   0.097539869828863
   0.012079702629218   0.904493896175509   0.097539869828863
   0.987920253235167   0.154493894152953   0.402460041702543
   0.987920253235167   0.654493894152953   0.402460041702543
   0.987920253532611   0.095506053071228   0.902460044053367
   0.987920253532611   0.595506053071228   0.902460044053367
   0.012079703760107   0.345506073025206   0.597539874660824
   0.012079703760107   0.845506073025206   0.597539874660824
   0.291877768828925   0.289199628743565   0.909971742026608
   0.291877768828925   0.789199628743565   0.909971742026608
   0.708122214347393   0.039199645083285   0.590028191791185
   0.708122214347393   0.539199645083285   0.590028191791185
   0.708122199166563   0.210800325473240   0.090028185930992
   0.708122199166563   0.710800325473240   0.090028185930992
   0.291877757111109   0.460800305241423   0.409971736205104
   0.291877757111109   0.960800305241423   0.409971736205104
   0.409265893356969   0.388545112515730   0.036591759972276
   0.409265893356969   0.888545112515730   0.036591759972276
   0.590734080440396   0.138545134318445   0.463408195759433
   0.590734080440396   0.638545134318445   0.463408195759433
   0.590734071365811   0.111454836629217   0.963408176751443
   0.590734071365811   0.611454836629217   0.963408176751443
   0.409265897344181   0.361454835187247   0.536591749109998
   0.409265897344181   0.861454835187247   0.536591749109998
   0.372412450323526   0.118637046000714   0.990683314633849
   0.372412450323526   0.618637046000714   0.990683314633849
   0.627587538843880   0.368637061115331   0.509316611962583
   0.627587538843880   0.868637061115331   0.509316611962583
   0.627587512325960   0.381362905019727   0.009316612710087
   0.627587512325960   0.881362905019727   0.009316612710087
   0.372412433766797   0.131362892538296   0.490683309123151
   0.372412433766797   0.631362892538296   0.490683309123151
   0.303783883661560   0.018495798614338   0.158058793011224
   0.303783883661560   0.518495798614337   0.158058793011224
   0.696216092988398   0.268495802541000   0.341941114849913
   0.696216092988398   0.768495802541000   0.341941114849913
   0.696216061824433   0.481504145277676   0.841941120516377
   0.696216061824433   0.981504145277676   0.841941120516377
   0.303783875654740   0.231504158806957   0.658058798302416
   0.303783875654740   0.731504158806957   0.658058798302416
   0.140469187794413   0.085117173186750   0.268479258827833
   0.140469187794413   0.585117173186750   0.268479258827833
   0.859530772050598   0.335117165151824   0.231520637973225
   0.859530772050598   0.835117165151824   0.231520637973225
   0.859530751496631   0.414882769824810   0.731520646886502
   0.859530751496631   0.914882769824810   0.731520646886502
   0.140469188594037   0.164882804771461   0.768479270545885
   0.140469188594037   0.664882804771461   0.768479270545885
   0.046155365531870   0.247743517266278   0.208434957549961
   0.046155365531870   0.747743517266278   0.208434957549961
   0.953844591695219  -0.002256492030520   0.291564947139470
   0.953844591695219   0.497743507969480   0.291564947139470
   0.953844581800117   0.252256429437943   0.791564951368816
   0.953844581800117   0.752256429437943   0.791564951368816
   0.046155365950395   0.502256462213274   0.708434964854595
   0.046155365950395   1.002256462213274   0.708434964854595
   0.459115639826475   0.483499901397842   0.846664012579011
   0.459115639826475   0.983499901397842   0.846664012579011
   0.540884402643626   0.233499957706126   0.653335972735732
   0.540884402643626   0.733499957706126   0.653335972735732
   0.540884348003720   0.016500045678276   0.153335934429685
   0.540884348003720   0.516500045678276   0.153335934429685
   0.459115623684836   0.266500013111924   0.346663994631122
   0.459115623684836   0.766500013111924   0.346663994631122
   0.324180424031686   0.440897209739120   0.770262375954435
   0.324180424031686   0.940897209739120   0.770262375954435
   0.675819478756659   0.190897055012514   0.729737716405736
   0.675819478756659   0.690897055012514   0.729737716405736
   0.675819532327707   0.059102789533131   0.229737590957437
   0.675819532327707   0.559102789533131   0.229737590957437
   0.324180453432797   0.309102770933119   0.270262319560478
   0.324180453432797   0.809102770933119   0.270262319560478
   0.450381784819480   0.364896168617461   0.770624543783157
   0.450381784819480   0.864896168617461   0.770624543783157
   0.549617983291858   0.114896163819147   0.729375286413306
   0.549617983291858   0.614896163819147   0.729375286413306
   0.549618138202645   0.135103796140071   0.229375365220492
   0.549618138202645   0.635103796140071   0.229375365220492
   0.450381855133790   0.385103759365722   0.270624575685162
   0.450381855133790   0.885103759365722   0.270624575685162
   0.075714208181914   0.488666078056624   0.933784298691761
   0.075714208181914   0.988666078056624   0.933784298691761
   0.924285750559736   0.238666095679586   0.566215618936365
   0.924285750559736   0.738666095679586   0.566215618936365
   0.924285746559969   0.011333868685356   0.066215612845991
   0.924285746559969   0.511333868685356   0.066215612845991
   0.075714209877138   0.261333866533750   0.433784301972242
   0.075714209877138   0.761333866533750   0.433784301972242
