C  H                                    
   1.0000000000000000     
    22.0000000000000000    0.0000000000000000    0.0000000000000000
     0.0000000000000000   22.0000000000000000    0.0000000000000000
     0.0000000000000000    0.0000000000000000   22.0000000000000000
   C    H 
    10    16
Direct
  0.2872599298490428  0.2872520494181501  0.2576430588790330
  0.2872402100233344  0.2872480204555785  0.4204478152570488
  0.2948658207543957  0.3444258170309666  0.2982624882871292
  0.2300703574431964  0.2948598365846848  0.3798239856143368
  0.2796441993612859  0.2300762715298177  0.2982578147612642
  0.3444199021546765  0.2796382147130601  0.3798374595646692
  0.2377883057373822  0.3519020352621141  0.3390410459380035
  0.2225980702506121  0.2377882706373526  0.3390363820070021
  0.3367118341359543  0.2225980346653245  0.3390498281832279
  0.3519020695924411  0.3367117993383886  0.3390544921028749
  0.2475368084432006  0.2925409966001951  0.2280305225383117
  0.2819484094167706  0.2475205797673681  0.4500540468322569
  0.3269902238123521  0.2819645676517553  0.2280398846748497
  0.2925248381131169  0.3269739956384470  0.4500572942641341
  0.3002340777892698  0.3847283822490155  0.2695150467005831
  0.1897650216871014  0.3002239001037168  0.4085683255016406
  0.2742829067638795  0.1897751292200809  0.2695070788754279
  0.3847182734111811  0.2742727283009998  0.4085912971201395
  0.1972939336311157  0.3581988601754347  0.3106974846231338
  0.2162985142114309  0.1972897644273246  0.3673734290159345
  0.3772130713305870  0.2163026123856966  0.3107157658349919
  0.3581947604480931  0.3772089029240391  0.3673950688200378
  0.2423019905868813  0.3926359510037045  0.3673814129652442
  0.1818668860622239  0.2423060895270694  0.3106927479488846
  0.3321912842454111  0.1818627163209641  0.3673870848183043
  0.3926401189265007  0.3321953831595366  0.3103568661447664

  0.00000000E+00  0.00000000E+00  0.00000000E+00
  0.00000000E+00  0.00000000E+00  0.00000000E+00
  0.00000000E+00  0.00000000E+00  0.00000000E+00
  0.00000000E+00  0.00000000E+00  0.00000000E+00
  0.00000000E+00  0.00000000E+00  0.00000000E+00
  0.00000000E+00  0.00000000E+00  0.00000000E+00
  0.00000000E+00  0.00000000E+00  0.00000000E+00
  0.00000000E+00  0.00000000E+00  0.00000000E+00
  0.00000000E+00  0.00000000E+00  0.00000000E+00
  0.00000000E+00  0.00000000E+00  0.00000000E+00
  0.00000000E+00  0.00000000E+00  0.00000000E+00
  0.00000000E+00  0.00000000E+00  0.00000000E+00
  0.00000000E+00  0.00000000E+00  0.00000000E+00
  0.00000000E+00  0.00000000E+00  0.00000000E+00
  0.00000000E+00  0.00000000E+00  0.00000000E+00
  0.00000000E+00  0.00000000E+00  0.00000000E+00
  0.00000000E+00  0.00000000E+00  0.00000000E+00
  0.00000000E+00  0.00000000E+00  0.00000000E+00
  0.00000000E+00  0.00000000E+00  0.00000000E+00
  0.00000000E+00  0.00000000E+00  0.00000000E+00
  0.00000000E+00  0.00000000E+00  0.00000000E+00
  0.00000000E+00  0.00000000E+00  0.00000000E+00
  0.00000000E+00  0.00000000E+00  0.00000000E+00
  0.00000000E+00  0.00000000E+00  0.00000000E+00
  0.00000000E+00  0.00000000E+00  0.00000000E+00
  0.00000000E+00  0.00000000E+00  0.00000000E+00
