 N  C  H 
        1.0000000000
  13.793437333387615   0.000008950143732   0.000004870629220
  -0.000008752346353  13.488601733924428   0.000003425415127
  -0.000006561366275  -0.000004718767639  18.581549259601992
  128   64  128
 Direct
   0.073652775369167   0.085250697756371   0.053372022392053
   0.573652775369167   0.085250697756371   0.053372022392053
   0.073652775369167   0.585250697756371   0.053372022392053
   0.573652775369167   0.585250697756371   0.053372022392053
   0.073652775369167   0.085250697756371   0.553372022392053
   0.573652775369167   0.085250697756371   0.553372022392053
   0.073652775369167   0.585250697756371   0.553372022392053
   0.573652775369167   0.585250697756371   0.553372022392053
   0.426346849044700   0.414751369506297   0.446628598435777
   0.926346849044700   0.414751369506297   0.446628598435777
   0.426346849044700   0.914751369506297   0.446628598435777
   0.926346849044700   0.914751369506297   0.446628598435777
   0.426346849044700   0.414751369506297   0.946628598435777
   0.926346849044700   0.414751369506297   0.946628598435777
   0.426346849044700   0.914751369506297   0.946628598435777
   0.926346849044700   0.914751369506297   0.946628598435777
   0.176346849044700   0.414751369506297   0.303372022392053
   0.676346849044700   0.414751369506297   0.303372022392053
   0.176346849044700   0.914751369506297   0.303372022392053
   0.676346849044700   0.914751369506297   0.303372022392053
   0.176346849044700   0.414751369506297   0.803372022392053
   0.676346849044700   0.414751369506297   0.803372022392053
   0.176346849044700   0.914751369506297   0.803372022392053
   0.676346849044700   0.914751369506297   0.803372022392053
   0.323652775369166   0.085250697756370   0.196628598435778
   0.823652775369166   0.085250697756370   0.196628598435778
   0.323652775369166   0.585250697756371   0.196628598435778
   0.823652775369166   0.585250697756371   0.196628598435778
   0.323652775369166   0.085250697756370   0.696628598435778
   0.823652775369166   0.085250697756370   0.696628598435778
   0.323652775369166   0.585250697756371   0.696628598435778
   0.823652775369166   0.585250697756371   0.696628598435778
   0.426346849044700   0.335250697756369   0.196628598435778
   0.926346849044700   0.335250697756369   0.196628598435778
   0.426346849044700   0.835250697756369   0.196628598435778
   0.926346849044700   0.835250697756369   0.196628598435778
   0.426346849044700   0.335250697756369   0.696628598435778
   0.926346849044700   0.335250697756369   0.696628598435778
   0.426346849044700   0.835250697756369   0.696628598435778
   0.926346849044700   0.835250697756369   0.696628598435778
   0.073652775369167   0.164751369506298   0.303372022392053
   0.573652775369167   0.164751369506298   0.303372022392053
   0.073652775369167   0.664751369506298   0.303372022392053
   0.573652775369167   0.664751369506298   0.303372022392053
   0.073652775369167   0.164751369506298   0.803372022392053
   0.573652775369167   0.164751369506298   0.803372022392053
   0.073652775369167   0.664751369506298   0.803372022392053
   0.573652775369167   0.664751369506298   0.803372022392053
   0.323652775369166   0.164751369506298   0.446628598435777
   0.823652775369166   0.164751369506298   0.446628598435777
   0.323652775369166   0.664751369506298   0.446628598435777
   0.823652775369166   0.664751369506298   0.446628598435777
   0.323652775369166   0.164751369506298   0.946628598435777
   0.823652775369166   0.164751369506298   0.946628598435777
   0.323652775369166   0.664751369506298   0.946628598435777
   0.823652775369166   0.664751369506298   0.946628598435777
   0.176346849044700   0.335250697756369   0.053372022392053
   0.676346849044700   0.335250697756369   0.053372022392053
   0.176346849044700   0.835250697756369   0.053372022392053
   0.676346849044700   0.835250697756369   0.053372022392053
   0.176346849044700   0.335250697756369   0.553372022392053
   0.676346849044700   0.335250697756369   0.553372022392053
   0.176346849044700   0.835250697756369   0.553372022392053
   0.676346849044700   0.835250697756369   0.553372022392053
   0.073150868090864   0.003275020007277   0.173204331517360
   0.573150868090864   0.003275020007277   0.173204331517360
   0.073150868090864   0.503275020007277   0.173204331517360
   0.573150868090864   0.503275020007277   0.173204331517360
   0.073150868090864   0.003275020007277   0.673204331517360
   0.573150868090864   0.003275020007277   0.673204331517360
   0.073150868090864   0.503275020007277   0.673204331517360
   0.573150868090864   0.503275020007277   0.673204331517360
   0.426848756323003   0.496727047255390   0.326796289310471
   0.926848756323003   0.496727047255390   0.326796289310471
   0.426848756323003   0.996727047255390   0.326796289310471
   0.926848756323003   0.996727047255390   0.326796289310471
   0.426848756323003   0.496727047255390   0.826796289310471
   0.926848756323003   0.496727047255390   0.826796289310471
   0.426848756323003   0.996727047255390   0.826796289310471
   0.926848756323003   0.996727047255390   0.826796289310471
   0.176848756323004   0.496727047255391   0.423204331517360
   0.676848756323004   0.496727047255391   0.423204331517360
   0.176848756323004   0.996727047255391   0.423204331517360
   0.676848756323004   0.996727047255391   0.423204331517360
   0.176848756323004   0.496727047255391   0.923204331517360
   0.676848756323004   0.496727047255391   0.923204331517360
   0.176848756323004   0.996727047255391   0.923204331517360
   0.676848756323004   0.996727047255391   0.923204331517360
   0.323150868090863   0.003275020007277   0.076796289310471
   0.823150868090863   0.003275020007277   0.076796289310471
   0.323150868090863   0.503275020007277   0.076796289310471
   0.823150868090863   0.503275020007277   0.076796289310471
   0.323150868090863   0.003275020007277   0.576796289310471
   0.823150868090863   0.003275020007277   0.576796289310471
   0.323150868090863   0.503275020007277   0.576796289310471
   0.823150868090863   0.503275020007277   0.576796289310471
   0.426848756323003   0.253275020007276   0.076796289310471
   0.926848756323003   0.253275020007276   0.076796289310471
   0.426848756323003   0.753275020007276   0.076796289310471
   0.926848756323003   0.753275020007276   0.076796289310471
   0.426848756323003   0.253275020007276   0.576796289310471
   0.926848756323003   0.253275020007276   0.576796289310471
   0.426848756323003   0.753275020007276   0.576796289310471
   0.926848756323003   0.753275020007276   0.576796289310471
   0.073150868090864   0.246727047255393   0.423204331517360
   0.573150868090864   0.246727047255393   0.423204331517360
   0.073150868090864   0.746727047255393   0.423204331517360
   0.573150868090864   0.746727047255393   0.423204331517360
   0.073150868090864   0.246727047255393   0.923204331517360
   0.573150868090864   0.246727047255393   0.923204331517360
   0.073150868090864   0.746727047255393   0.923204331517360
   0.573150868090864   0.746727047255393   0.923204331517360
   0.323150868090863   0.246727047255393   0.326796289310471
   0.823150868090863   0.246727047255393   0.326796289310471
   0.323150868090863   0.746727047255393   0.326796289310471
   0.823150868090863   0.746727047255393   0.326796289310471
   0.323150868090863   0.246727047255393   0.826796289310471
   0.823150868090863   0.246727047255393   0.826796289310471
   0.323150868090863   0.746727047255393   0.826796289310471
   0.823150868090863   0.746727047255393   0.826796289310471
   0.176848756323004   0.253275020007276   0.173204331517360
   0.676848756323004   0.253275020007276   0.173204331517360
   0.176848756323004   0.753275020007276   0.173204331517360
   0.676848756323004   0.753275020007276   0.173204331517360
   0.176848756323004   0.253275020007276   0.673204331517360
   0.676848756323004   0.253275020007276   0.673204331517360
   0.176848756323004   0.753275020007276   0.673204331517360
   0.676848756323004   0.753275020007276   0.673204331517360
   0.072487457807411   0.040401422894154   0.116297760285491
   0.572487457807411   0.040401422894154   0.116297760285491
   0.072487457807411   0.540401422894154   0.116297760285491
   0.572487457807411   0.540401422894154   0.116297760285491
   0.072487457807411   0.040401422894154   0.616297760285491
   0.572487457807411   0.040401422894154   0.616297760285491
   0.072487457807411   0.540401422894154   0.616297760285491
   0.572487457807411   0.540401422894154   0.616297760285491
   0.427512166606456   0.459600644368514   0.383702860542340
   0.927512166606456   0.459600644368514   0.383702860542340
   0.427512166606456   0.959600644368514   0.383702860542340
   0.927512166606456   0.959600644368514   0.383702860542340
   0.427512166606456   0.459600644368514   0.883702860542340
   0.927512166606456   0.459600644368514   0.883702860542340
   0.427512166606456   0.959600644368514   0.883702860542340
   0.927512166606456   0.959600644368514   0.883702860542340
   0.177512166606457   0.459600644368514   0.366297760285491
   0.677512166606457   0.459600644368514   0.366297760285491
   0.177512166606457   0.959600644368514   0.366297760285491
   0.677512166606457   0.959600644368514   0.366297760285491
   0.177512166606457   0.459600644368514   0.866297760285491
   0.677512166606457   0.459600644368514   0.866297760285491
   0.177512166606457   0.959600644368514   0.866297760285491
   0.677512166606457   0.959600644368514   0.866297760285491
   0.322487457807410   0.040401422894154   0.133702860542339
   0.822487457807410   0.040401422894154   0.133702860542339
   0.322487457807410   0.540401422894154   0.133702860542339
   0.822487457807410   0.540401422894154   0.133702860542339
   0.322487457807410   0.040401422894154   0.633702860542339
   0.822487457807410   0.040401422894154   0.633702860542339
   0.322487457807410   0.540401422894154   0.633702860542339
   0.822487457807410   0.540401422894154   0.633702860542339
   0.427512166606456   0.290401422894153   0.133702860542339
   0.927512166606456   0.290401422894153   0.133702860542339
   0.427512166606456   0.790401422894153   0.133702860542339
   0.927512166606456   0.790401422894153   0.133702860542339
   0.427512166606456   0.290401422894153   0.633702860542339
   0.927512166606456   0.290401422894153   0.633702860542339
   0.427512166606456   0.790401422894153   0.633702860542339
   0.927512166606456   0.790401422894153   0.633702860542339
   0.072487457807411   0.209600644368515   0.366297760285491
   0.572487457807411   0.209600644368515   0.366297760285491
   0.072487457807411   0.709600644368515   0.366297760285491
   0.572487457807411   0.709600644368515   0.366297760285491
   0.072487457807411   0.209600644368515   0.866297760285492
   0.572487457807411   0.209600644368515   0.866297760285492
   0.072487457807411   0.709600644368515   0.866297760285492
   0.572487457807411   0.709600644368515   0.866297760285492
   0.322487457807410   0.209600644368515   0.383702860542340
   0.822487457807410   0.209600644368515   0.383702860542340
   0.322487457807410   0.709600644368515   0.383702860542340
   0.822487457807410   0.709600644368515   0.383702860542340
   0.322487457807410   0.209600644368515   0.883702860542340
   0.822487457807410   0.209600644368515   0.883702860542340
   0.322487457807410   0.709600644368515   0.883702860542340
   0.822487457807410   0.709600644368515   0.883702860542340
   0.177512166606457   0.290401422894153   0.116297760285491
   0.677512166606457   0.290401422894153   0.116297760285491
   0.177512166606457   0.790401422894153   0.116297760285491
   0.677512166606457   0.790401422894153   0.116297760285491
   0.177512166606457   0.290401422894153   0.616297760285491
   0.677512166606457   0.290401422894153   0.616297760285491
   0.177512166606457   0.790401422894153   0.616297760285491
   0.677512166606457   0.790401422894153   0.616297760285491
   0.104104805103031   0.050870264854039   0.009811991714425
   0.604104805103031   0.050870264854039   0.009811991714425
   0.104104805103031   0.550870264854039   0.009811991714425
   0.604104805103031   0.550870264854039   0.009811991714425
   0.104104805103031   0.050870264854039   0.509811991714425
   0.604104805103031   0.050870264854039   0.509811991714425
   0.104104805103031   0.550870264854039   0.509811991714425
   0.604104805103031   0.550870264854039   0.509811991714425
   0.395894819310836   0.449131802408629   0.490188629113405
   0.895894819310836   0.449131802408629   0.490188629113405
   0.395894819310836   0.949131802408629   0.490188629113405
   0.895894819310836   0.949131802408629   0.490188629113405
   0.395894819310836   0.449131802408629   0.990188629113405
   0.895894819310836   0.449131802408629   0.990188629113405
   0.395894819310836   0.949131802408629   0.990188629113405
   0.895894819310836   0.949131802408629   0.990188629113405
   0.145894819310836   0.449131802408629   0.259811991714425
   0.645894819310835   0.449131802408629   0.259811991714425
   0.145894819310836   0.949131802408629   0.259811991714425
   0.645894819310835   0.949131802408629   0.259811991714425
   0.145894819310836   0.449131802408629   0.759811991714425
   0.645894819310835   0.449131802408629   0.759811991714425
   0.145894819310836   0.949131802408629   0.759811991714425
   0.645894819310835   0.949131802408629   0.759811991714425
   0.354104805103031   0.050870264854039   0.240188629113405
   0.854104805103031   0.050870264854039   0.240188629113405
   0.354104805103031   0.550870264854039   0.240188629113405
   0.854104805103031   0.550870264854039   0.240188629113405
   0.354104805103031   0.050870264854039   0.740188629113405
   0.854104805103031   0.050870264854039   0.740188629113405
   0.354104805103031   0.550870264854039   0.740188629113405
   0.854104805103031   0.550870264854039   0.740188629113405
   0.395894819310836   0.300870264854038   0.240188629113405
   0.895894819310836   0.300870264854038   0.240188629113405
   0.395894819310836   0.800870264854038   0.240188629113405
   0.895894819310836   0.800870264854038   0.240188629113405
   0.395894819310836   0.300870264854038   0.740188629113405
   0.895894819310836   0.300870264854038   0.740188629113405
   0.395894819310836   0.800870264854038   0.740188629113405
   0.895894819310836   0.800870264854038   0.740188629113405
   0.104104805103031   0.199131802408629   0.259811991714425
   0.604104805103031   0.199131802408629   0.259811991714425
   0.104104805103031   0.699131802408629   0.259811991714425
   0.604104805103031   0.699131802408629   0.259811991714425
   0.104104805103031   0.199131802408629   0.759811991714425
   0.604104805103031   0.199131802408629   0.759811991714425
   0.104104805103031   0.699131802408629   0.759811991714425
   0.604104805103031   0.699131802408629   0.759811991714425
   0.354104805103031   0.199131802408629   0.490188629113405
   0.854104805103031   0.199131802408629   0.490188629113405
   0.354104805103031   0.699131802408629   0.490188629113405
   0.854104805103031   0.699131802408629   0.490188629113405
   0.354104805103031   0.199131802408629   0.990188629113405
   0.854104805103031   0.199131802408629   0.990188629113405
   0.354104805103031   0.699131802408629   0.990188629113405
   0.854104805103031   0.699131802408629   0.990188629113405
   0.145894819310836   0.300870264854038   0.009811991714425
   0.645894819310836   0.300870264854038   0.009811991714425
   0.145894819310836   0.800870264854038   0.009811991714425
   0.645894819310836   0.800870264854038   0.009811991714425
   0.145894819310836   0.300870264854038   0.509811991714425
   0.645894819310836   0.300870264854038   0.509811991714425
   0.145894819310836   0.800870264854038   0.509811991714425
   0.645894819310836   0.800870264854038   0.509811991714425
   0.024744828100045   0.140927763618726   0.045161403049618
   0.524744828100045   0.140927763618726   0.045161403049618
   0.024744828100045   0.640927763618726   0.045161403049618
   0.524744828100045   0.640927763618726   0.045161403049618
   0.024744828100045   0.140927763618726   0.545161403049618
   0.524744828100045   0.140927763618726   0.545161403049618
   0.024744828100045   0.640927763618726   0.545161403049618
   0.524744828100045   0.640927763618726   0.545161403049618
   0.475254796313825   0.359074303643940   0.454839217778213
   0.975254796313825   0.359074303643940   0.454839217778213
   0.475254796313825   0.859074303643941   0.454839217778213
   0.975254796313825   0.859074303643941   0.454839217778213
   0.475254796313825   0.359074303643940   0.954839217778213
   0.975254796313825   0.359074303643940   0.954839217778213
   0.475254796313825   0.859074303643941   0.954839217778213
   0.975254796313825   0.859074303643941   0.954839217778213
   0.225254796313823   0.359074303643941   0.295161403049619
   0.725254796313823   0.359074303643941   0.295161403049619
   0.225254796313823   0.859074303643941   0.295161403049619
   0.725254796313823   0.859074303643941   0.295161403049619
   0.225254796313823   0.359074303643941   0.795161403049619
   0.725254796313823   0.359074303643941   0.795161403049619
   0.225254796313823   0.859074303643941   0.795161403049619
   0.725254796313823   0.859074303643941   0.795161403049619
   0.274744828100045   0.140927763618726   0.204839217778213
   0.774744828100045   0.140927763618726   0.204839217778213
   0.274744828100045   0.640927763618726   0.204839217778213
   0.774744828100045   0.640927763618726   0.204839217778213
   0.274744828100045   0.140927763618726   0.704839217778213
   0.774744828100045   0.140927763618726   0.704839217778213
   0.274744828100045   0.640927763618726   0.704839217778213
   0.774744828100045   0.640927763618726   0.704839217778213
   0.475254796313823   0.390927763618725   0.204839217778213
   0.975254796313823   0.390927763618725   0.204839217778213
   0.475254796313823   0.890927763618725   0.204839217778213
   0.975254796313823   0.890927763618725   0.204839217778213
   0.475254796313823   0.390927763618725   0.704839217778213
   0.975254796313823   0.390927763618725   0.704839217778213
   0.475254796313823   0.890927763618725   0.704839217778213
   0.975254796313823   0.890927763618725   0.704839217778213
   0.024744828100045   0.109074303643943   0.295161403049619
   0.524744828100045   0.109074303643943   0.295161403049619
   0.024744828100045   0.609074303643943   0.295161403049619
   0.524744828100045   0.609074303643943   0.295161403049619
   0.024744828100045   0.109074303643943   0.795161403049619
   0.524744828100045   0.109074303643943   0.795161403049619
   0.024744828100045   0.609074303643943   0.795161403049619
   0.524744828100045   0.609074303643943   0.795161403049619
   0.274744828100044   0.109074303643943   0.454839217778213
   0.774744828100044   0.109074303643943   0.454839217778213
   0.274744828100044   0.609074303643943   0.454839217778213
   0.774744828100044   0.609074303643943   0.454839217778213
   0.274744828100044   0.109074303643943   0.954839217778213
   0.774744828100044   0.109074303643943   0.954839217778213
   0.274744828100044   0.609074303643943   0.954839217778213
   0.774744828100044   0.609074303643943   0.954839217778213
   0.225254796313824   0.390927763618726   0.045161403049618
   0.725254796313824   0.390927763618726   0.045161403049618
   0.225254796313824   0.890927763618726   0.045161403049618
   0.725254796313824   0.890927763618726   0.045161403049618
   0.225254796313824   0.390927763618726   0.545161403049618
   0.725254796313824   0.390927763618726   0.545161403049618
   0.225254796313824   0.890927763618726   0.545161403049618
   0.725254796313824   0.890927763618726   0.545161403049618
