 C  H  N 
 1.0000000000000000
    25.0000000000000000    0.0000000000000000    0.0000000000000000
     0.0000000000000000   25.0000000000000000    0.0000000000000000
     0.0000000000000000    0.0000000000000000   25.0000000000000000
 C   H   N  
   3   4   2
Cartesian
 12.5159149999999997 13.3782149999999991 13.1617250000000006
 11.6316150000000000 12.3970050000000001 12.6641550000000009
 12.3696050000000000 11.7027249999999992 11.7238450000000007
 12.1219149999999996 10.8672550000000001 11.0834349999999997
 10.6034550000000003 12.2191149999999986 12.9461849999999998
 12.3324250000000006 14.1327449999999999 13.9165650000000003
 14.3965449999999997 12.0286949999999990 11.1386649999999996
 13.6005349999999989 12.2793849999999978 11.7096650000000011
 13.7182549999999992 13.3089849999999998 12.5805749999999996
