 N  H 
        1.0000000000
  20.515319838685834   0.000000000000000   0.000000000000000
   0.000000000000000  20.515319838685834   0.000000000000000
   0.000000000000000   0.000000000000000  20.515319838685834
  256  768
 Direct
   0.052548297867732   0.052546877184773   0.052549120243639
   0.302548297867732   0.052546877184773   0.052549120243639
   0.552548297867732   0.052546877184773   0.052549120243639
   0.802548297867732   0.052546877184773   0.052549120243639
   0.052548297867732   0.302546877184773   0.052549120243639
   0.302548297867732   0.302546877184773   0.052549120243639
   0.552548297867732   0.302546877184773   0.052549120243639
   0.802548297867732   0.302546877184773   0.052549120243639
   0.052548297867732   0.552546877184773   0.052549120243639
   0.302548297867732   0.552546877184773   0.052549120243639
   0.552548297867732   0.552546877184773   0.052549120243639
   0.802548297867732   0.552546877184773   0.052549120243639
   0.052548297867732   0.802546877184773   0.052549120243639
   0.302548297867732   0.802546877184773   0.052549120243639
   0.552548297867732   0.802546877184773   0.052549120243639
   0.802548297867732   0.802546877184773   0.052549120243639
   0.052548297867732   0.052546877184773   0.302549120243639
   0.302548297867732   0.052546877184773   0.302549120243639
   0.552548297867732   0.052546877184773   0.302549120243639
   0.802548297867732   0.052546877184773   0.302549120243639
   0.052548297867732   0.302546877184773   0.302549120243639
   0.302548297867732   0.302546877184773   0.302549120243639
   0.552548297867732   0.302546877184773   0.302549120243639
   0.802548297867732   0.302546877184773   0.302549120243639
   0.052548297867732   0.552546877184773   0.302549120243639
   0.302548297867732   0.552546877184773   0.302549120243639
   0.552548297867732   0.552546877184773   0.302549120243639
   0.802548297867732   0.552546877184773   0.302549120243639
   0.052548297867732   0.802546877184773   0.302549120243639
   0.302548297867732   0.802546877184773   0.302549120243639
   0.552548297867732   0.802546877184773   0.302549120243639
   0.802548297867732   0.802546877184773   0.302549120243639
   0.052548297867732   0.052546877184773   0.552549120243639
   0.302548297867732   0.052546877184773   0.552549120243639
   0.552548297867732   0.052546877184773   0.552549120243639
   0.802548297867732   0.052546877184773   0.552549120243639
   0.052548297867732   0.302546877184773   0.552549120243639
   0.302548297867732   0.302546877184773   0.552549120243639
   0.552548297867732   0.302546877184773   0.552549120243639
   0.802548297867732   0.302546877184773   0.552549120243639
   0.052548297867732   0.552546877184773   0.552549120243639
   0.302548297867732   0.552546877184773   0.552549120243639
   0.552548297867732   0.552546877184773   0.552549120243639
   0.802548297867732   0.552546877184773   0.552549120243639
   0.052548297867732   0.802546877184773   0.552549120243639
   0.302548297867732   0.802546877184773   0.552549120243639
   0.552548297867732   0.802546877184773   0.552549120243639
   0.802548297867732   0.802546877184773   0.552549120243639
   0.052548297867732   0.052546877184773   0.802549120243639
   0.302548297867732   0.052546877184773   0.802549120243639
   0.552548297867732   0.052546877184773   0.802549120243639
   0.802548297867732   0.052546877184773   0.802549120243639
   0.052548297867732   0.302546877184773   0.802549120243639
   0.302548297867732   0.302546877184773   0.802549120243639
   0.552548297867732   0.302546877184773   0.802549120243639
   0.802548297867732   0.302546877184773   0.802549120243639
   0.052548297867732   0.552546877184773   0.802549120243639
   0.302548297867732   0.552546877184773   0.802549120243639
   0.552548297867732   0.552546877184773   0.802549120243639
   0.802548297867732   0.552546877184773   0.802549120243639
   0.052548297867732   0.802546877184773   0.802549120243639
   0.302548297867732   0.802546877184773   0.802549120243639
   0.552548297867732   0.802546877184773   0.802549120243639
   0.802548297867732   0.802546877184773   0.802549120243639
   0.177548297867732   0.072453447907882   0.197455690966749
   0.427548297867732   0.072453447907882   0.197455690966749
   0.677548297867732   0.072453447907882   0.197455690966749
   0.927548297867732   0.072453447907882   0.197455690966749
   0.177548297867732   0.322453447907882   0.197455690966749
   0.427548297867732   0.322453447907882   0.197455690966749
   0.677548297867732   0.322453447907882   0.197455690966749
   0.927548297867732   0.322453447907882   0.197455690966749
   0.177548297867732   0.572453447907882   0.197455690966749
   0.427548297867732   0.572453447907882   0.197455690966749
   0.677548297867732   0.572453447907882   0.197455690966749
   0.927548297867732   0.572453447907882   0.197455690966749
   0.177548297867732   0.822453447907882   0.197455690966749
   0.427548297867732   0.822453447907882   0.197455690966749
   0.677548297867732   0.822453447907882   0.197455690966749
   0.927548297867732   0.822453447907882   0.197455690966749
   0.177548297867732   0.072453447907882   0.447455690966749
   0.427548297867732   0.072453447907882   0.447455690966749
   0.677548297867732   0.072453447907882   0.447455690966749
   0.927548297867732   0.072453447907882   0.447455690966749
   0.177548297867732   0.322453447907882   0.447455690966749
   0.427548297867732   0.322453447907882   0.447455690966749
   0.677548297867732   0.322453447907882   0.447455690966749
   0.927548297867732   0.322453447907882   0.447455690966749
   0.177548297867732   0.572453447907882   0.447455690966749
   0.427548297867732   0.572453447907882   0.447455690966749
   0.677548297867732   0.572453447907882   0.447455690966749
   0.927548297867732   0.572453447907882   0.447455690966749
   0.177548297867732   0.822453447907882   0.447455690966749
   0.427548297867732   0.822453447907882   0.447455690966749
   0.677548297867732   0.822453447907882   0.447455690966749
   0.927548297867732   0.822453447907882   0.447455690966749
   0.177548297867732   0.072453447907882   0.697455690966749
   0.427548297867732   0.072453447907882   0.697455690966749
   0.677548297867732   0.072453447907882   0.697455690966749
   0.927548297867732   0.072453447907882   0.697455690966749
   0.177548297867732   0.322453447907882   0.697455690966749
   0.427548297867732   0.322453447907882   0.697455690966749
   0.677548297867732   0.322453447907882   0.697455690966749
   0.927548297867732   0.322453447907882   0.697455690966749
   0.177548297867732   0.572453447907882   0.697455690966749
   0.427548297867732   0.572453447907882   0.697455690966749
   0.677548297867732   0.572453447907882   0.697455690966749
   0.927548297867732   0.572453447907882   0.697455690966749
   0.177548297867732   0.822453447907882   0.697455690966749
   0.427548297867732   0.822453447907882   0.697455690966749
   0.677548297867732   0.822453447907882   0.697455690966749
   0.927548297867732   0.822453447907882   0.697455690966749
   0.177548297867732   0.072453447907882   0.947455690966749
   0.427548297867732   0.072453447907882   0.947455690966749
   0.677548297867732   0.072453447907882   0.947455690966749
   0.927548297867732   0.072453447907882   0.947455690966749
   0.177548297867732   0.322453447907882   0.947455690966749
   0.427548297867732   0.322453447907882   0.947455690966749
   0.677548297867732   0.322453447907882   0.947455690966749
   0.927548297867732   0.322453447907882   0.947455690966749
   0.177548297867732   0.572453447907882   0.947455690966749
   0.427548297867732   0.572453447907882   0.947455690966749
   0.677548297867732   0.572453447907882   0.947455690966749
   0.927548297867732   0.572453447907882   0.947455690966749
   0.177548297867732   0.822453447907882   0.947455690966749
   0.427548297867732   0.822453447907882   0.947455690966749
   0.677548297867732   0.822453447907882   0.947455690966749
   0.927548297867732   0.822453447907882   0.947455690966749
   0.197454868590842   0.177546877184773   0.072455690966749
   0.447454868590842   0.177546877184773   0.072455690966749
   0.697454868590842   0.177546877184773   0.072455690966749
   0.947454868590842   0.177546877184773   0.072455690966749
   0.197454868590842   0.427546877184773   0.072455690966749
   0.447454868590842   0.427546877184773   0.072455690966749
   0.697454868590842   0.427546877184773   0.072455690966749
   0.947454868590842   0.427546877184773   0.072455690966749
   0.197454868590842   0.677546877184773   0.072455690966749
   0.447454868590842   0.677546877184773   0.072455690966749
   0.697454868590842   0.677546877184773   0.072455690966749
   0.947454868590842   0.677546877184773   0.072455690966749
   0.197454868590842   0.927546877184773   0.072455690966749
   0.447454868590842   0.927546877184773   0.072455690966749
   0.697454868590842   0.927546877184773   0.072455690966749
   0.947454868590842   0.927546877184773   0.072455690966749
   0.197454868590842   0.177546877184773   0.322455690966749
   0.447454868590842   0.177546877184773   0.322455690966749
   0.697454868590842   0.177546877184773   0.322455690966749
   0.947454868590842   0.177546877184773   0.322455690966749
   0.197454868590842   0.427546877184773   0.322455690966749
   0.447454868590842   0.427546877184773   0.322455690966749
   0.697454868590842   0.427546877184773   0.322455690966749
   0.947454868590842   0.427546877184773   0.322455690966749
   0.197454868590842   0.677546877184773   0.322455690966749
   0.447454868590842   0.677546877184773   0.322455690966749
   0.697454868590842   0.677546877184773   0.322455690966749
   0.947454868590842   0.677546877184773   0.322455690966749
   0.197454868590842   0.927546877184773   0.322455690966749
   0.447454868590842   0.927546877184773   0.322455690966749
   0.697454868590842   0.927546877184773   0.322455690966749
   0.947454868590842   0.927546877184773   0.322455690966749
   0.197454868590842   0.177546877184773   0.572455690966749
   0.447454868590842   0.177546877184773   0.572455690966749
   0.697454868590842   0.177546877184773   0.572455690966749
   0.947454868590842   0.177546877184773   0.572455690966749
   0.197454868590842   0.427546877184773   0.572455690966749
   0.447454868590842   0.427546877184773   0.572455690966749
   0.697454868590842   0.427546877184773   0.572455690966749
   0.947454868590842   0.427546877184773   0.572455690966749
   0.197454868590842   0.677546877184773   0.572455690966749
   0.447454868590842   0.677546877184773   0.572455690966749
   0.697454868590842   0.677546877184773   0.572455690966749
   0.947454868590842   0.677546877184773   0.572455690966749
   0.197454868590842   0.927546877184773   0.572455690966749
   0.447454868590842   0.927546877184773   0.572455690966749
   0.697454868590842   0.927546877184773   0.572455690966749
   0.947454868590842   0.927546877184773   0.572455690966749
   0.197454868590842   0.177546877184773   0.822455690966749
   0.447454868590842   0.177546877184773   0.822455690966749
   0.697454868590842   0.177546877184773   0.822455690966749
   0.947454868590842   0.177546877184773   0.822455690966749
   0.197454868590842   0.427546877184773   0.822455690966749
   0.447454868590842   0.427546877184773   0.822455690966749
   0.697454868590842   0.427546877184773   0.822455690966749
   0.947454868590842   0.427546877184773   0.822455690966749
   0.197454868590842   0.677546877184773   0.822455690966749
   0.447454868590842   0.677546877184773   0.822455690966749
   0.697454868590842   0.677546877184773   0.822455690966749
   0.947454868590842   0.677546877184773   0.822455690966749
   0.197454868590842   0.927546877184773   0.822455690966749
   0.447454868590842   0.927546877184773   0.822455690966749
   0.697454868590842   0.927546877184773   0.822455690966749
   0.947454868590842   0.927546877184773   0.822455690966749
   0.072454868590842   0.197453447907883   0.177549120243639
   0.322454868590842   0.197453447907883   0.177549120243639
   0.572454868590842   0.197453447907883   0.177549120243639
   0.822454868590842   0.197453447907883   0.177549120243639
   0.072454868590842   0.447453447907883   0.177549120243639
   0.322454868590842   0.447453447907883   0.177549120243639
   0.572454868590842   0.447453447907883   0.177549120243639
   0.822454868590842   0.447453447907883   0.177549120243639
   0.072454868590842   0.697453447907883   0.177549120243639
   0.322454868590842   0.697453447907883   0.177549120243639
   0.572454868590842   0.697453447907883   0.177549120243639
   0.822454868590842   0.697453447907883   0.177549120243639
   0.072454868590842   0.947453447907883   0.177549120243639
   0.322454868590842   0.947453447907883   0.177549120243639
   0.572454868590842   0.947453447907883   0.177549120243639
   0.822454868590842   0.947453447907883   0.177549120243639
   0.072454868590842   0.197453447907883   0.427549120243639
   0.322454868590842   0.197453447907883   0.427549120243639
   0.572454868590842   0.197453447907883   0.427549120243639
   0.822454868590842   0.197453447907883   0.427549120243639
   0.072454868590842   0.447453447907883   0.427549120243639
   0.322454868590842   0.447453447907883   0.427549120243639
   0.572454868590842   0.447453447907883   0.427549120243639
   0.822454868590842   0.447453447907883   0.427549120243639
   0.072454868590842   0.697453447907883   0.427549120243639
   0.322454868590842   0.697453447907883   0.427549120243639
   0.572454868590842   0.697453447907883   0.427549120243639
   0.822454868590842   0.697453447907883   0.427549120243639
   0.072454868590842   0.947453447907883   0.427549120243639
   0.322454868590842   0.947453447907883   0.427549120243639
   0.572454868590842   0.947453447907883   0.427549120243639
   0.822454868590842   0.947453447907883   0.427549120243639
   0.072454868590842   0.197453447907883   0.677549120243639
   0.322454868590842   0.197453447907883   0.677549120243639
   0.572454868590842   0.197453447907883   0.677549120243639
   0.822454868590842   0.197453447907883   0.677549120243639
   0.072454868590842   0.447453447907883   0.677549120243639
   0.322454868590842   0.447453447907883   0.677549120243639
   0.572454868590842   0.447453447907883   0.677549120243639
   0.822454868590842   0.447453447907883   0.677549120243639
   0.072454868590842   0.697453447907883   0.677549120243639
   0.322454868590842   0.697453447907883   0.677549120243639
   0.572454868590842   0.697453447907883   0.677549120243639
   0.822454868590842   0.697453447907883   0.677549120243639
   0.072454868590842   0.947453447907883   0.677549120243639
   0.322454868590842   0.947453447907883   0.677549120243639
   0.572454868590842   0.947453447907883   0.677549120243639
   0.822454868590842   0.947453447907883   0.677549120243639
   0.072454868590842   0.197453447907883   0.927549120243639
   0.322454868590842   0.197453447907883   0.927549120243639
   0.572454868590842   0.197453447907883   0.927549120243639
   0.822454868590842   0.197453447907883   0.927549120243639
   0.072454868590842   0.447453447907883   0.927549120243639
   0.322454868590842   0.447453447907883   0.927549120243639
   0.572454868590842   0.447453447907883   0.927549120243639
   0.822454868590842   0.447453447907883   0.927549120243639
   0.072454868590842   0.697453447907883   0.927549120243639
   0.322454868590842   0.697453447907883   0.927549120243639
   0.572454868590842   0.697453447907883   0.927549120243639
   0.822454868590842   0.697453447907883   0.927549120243639
   0.072454868590842   0.947453447907883   0.927549120243639
   0.322454868590842   0.947453447907883   0.927549120243639
   0.572454868590842   0.947453447907883   0.927549120243639
   0.822454868590842   0.947453447907883   0.927549120243639
   0.092956986349696   0.068153669421477   0.027963723857468
   0.342956986349696   0.068153669421477   0.027963723857468
   0.592956986349696   0.068153669421477   0.027963723857468
   0.842956986349696   0.068153669421477   0.027963723857468
   0.092956986349696   0.318153669421477   0.027963723857468
   0.342956986349696   0.318153669421477   0.027963723857468
   0.592956986349696   0.318153669421477   0.027963723857468
   0.842956986349696   0.318153669421477   0.027963723857468
   0.092956986349696   0.568153669421477   0.027963723857468
   0.342956986349696   0.568153669421477   0.027963723857468
   0.592956986349696   0.568153669421477   0.027963723857468
   0.842956986349696   0.568153669421477   0.027963723857468
   0.092956986349696   0.818153669421477   0.027963723857468
   0.342956986349696   0.818153669421477   0.027963723857468
   0.592956986349696   0.818153669421477   0.027963723857468
   0.842956986349696   0.818153669421477   0.027963723857468
   0.092956986349696   0.068153669421477   0.277963723857468
   0.342956986349696   0.068153669421477   0.277963723857468
   0.592956986349696   0.068153669421477   0.277963723857468
   0.842956986349696   0.068153669421477   0.277963723857468
   0.092956986349696   0.318153669421477   0.277963723857468
   0.342956986349696   0.318153669421477   0.277963723857468
   0.592956986349696   0.318153669421477   0.277963723857468
   0.842956986349696   0.318153669421477   0.277963723857468
   0.092956986349696   0.568153669421477   0.277963723857468
   0.342956986349696   0.568153669421477   0.277963723857468
   0.592956986349696   0.568153669421477   0.277963723857468
   0.842956986349696   0.568153669421477   0.277963723857468
   0.092956986349696   0.818153669421477   0.277963723857468
   0.342956986349696   0.818153669421477   0.277963723857468
   0.592956986349696   0.818153669421477   0.277963723857468
   0.842956986349696   0.818153669421477   0.277963723857468
   0.092956986349696   0.068153669421477   0.527963723857468
   0.342956986349696   0.068153669421477   0.527963723857468
   0.592956986349696   0.068153669421477   0.527963723857468
   0.842956986349696   0.068153669421477   0.527963723857468
   0.092956986349696   0.318153669421477   0.527963723857468
   0.342956986349696   0.318153669421477   0.527963723857468
   0.592956986349696   0.318153669421477   0.527963723857468
   0.842956986349696   0.318153669421477   0.527963723857468
   0.092956986349696   0.568153669421477   0.527963723857468
   0.342956986349696   0.568153669421477   0.527963723857468
   0.592956986349696   0.568153669421477   0.527963723857468
   0.842956986349696   0.568153669421477   0.527963723857468
   0.092956986349696   0.818153669421477   0.527963723857468
   0.342956986349696   0.818153669421477   0.527963723857468
   0.592956986349696   0.818153669421477   0.527963723857468
   0.842956986349696   0.818153669421477   0.527963723857468
   0.092956986349696   0.068153669421477   0.777963723857468
   0.342956986349696   0.068153669421477   0.777963723857468
   0.592956986349696   0.068153669421477   0.777963723857468
   0.842956986349696   0.068153669421477   0.777963723857468
   0.092956986349696   0.318153669421477   0.777963723857468
   0.342956986349696   0.318153669421477   0.777963723857468
   0.592956986349696   0.318153669421477   0.777963723857468
   0.842956986349696   0.318153669421477   0.777963723857468
   0.092956986349696   0.568153669421477   0.777963723857468
   0.342956986349696   0.568153669421477   0.777963723857468
   0.592956986349696   0.568153669421477   0.777963723857468
   0.842956986349696   0.568153669421477   0.777963723857468
   0.092956986349696   0.818153669421477   0.777963723857468
   0.342956986349696   0.818153669421477   0.777963723857468
   0.592956986349696   0.818153669421477   0.777963723857468
   0.842956986349696   0.818153669421477   0.777963723857468
   0.068155090104437   0.027961480798601   0.092957808725603
   0.318155090104437   0.027961480798601   0.092957808725603
   0.568155090104437   0.027961480798601   0.092957808725603
   0.818155090104437   0.027961480798601   0.092957808725603
   0.068155090104437   0.277961480798601   0.092957808725603
   0.318155090104437   0.277961480798601   0.092957808725603
   0.568155090104437   0.277961480798601   0.092957808725603
   0.818155090104437   0.277961480798601   0.092957808725603
   0.068155090104437   0.527961480798601   0.092957808725603
   0.318155090104437   0.527961480798601   0.092957808725603
   0.568155090104437   0.527961480798601   0.092957808725603
   0.818155090104437   0.527961480798601   0.092957808725603
   0.068155090104437   0.777961480798601   0.092957808725603
   0.318155090104437   0.777961480798601   0.092957808725603
   0.568155090104437   0.777961480798601   0.092957808725603
   0.818155090104437   0.777961480798601   0.092957808725603
   0.068155090104437   0.027961480798601   0.342957808725603
   0.318155090104437   0.027961480798601   0.342957808725603
   0.568155090104437   0.027961480798601   0.342957808725603
   0.818155090104437   0.027961480798601   0.342957808725603
   0.068155090104437   0.277961480798601   0.342957808725603
   0.318155090104437   0.277961480798601   0.342957808725603
   0.568155090104437   0.277961480798601   0.342957808725603
   0.818155090104437   0.277961480798601   0.342957808725603
   0.068155090104437   0.527961480798601   0.342957808725603
   0.318155090104437   0.527961480798601   0.342957808725603
   0.568155090104437   0.527961480798601   0.342957808725603
   0.818155090104437   0.527961480798601   0.342957808725603
   0.068155090104437   0.777961480798601   0.342957808725603
   0.318155090104437   0.777961480798601   0.342957808725603
   0.568155090104437   0.777961480798601   0.342957808725603
   0.818155090104437   0.777961480798601   0.342957808725603
   0.068155090104437   0.027961480798601   0.592957808725603
   0.318155090104437   0.027961480798601   0.592957808725603
   0.568155090104437   0.027961480798601   0.592957808725603
   0.818155090104437   0.027961480798601   0.592957808725603
   0.068155090104437   0.277961480798601   0.592957808725603
   0.318155090104437   0.277961480798601   0.592957808725603
   0.568155090104437   0.277961480798601   0.592957808725603
   0.818155090104437   0.277961480798601   0.592957808725603
   0.068155090104437   0.527961480798601   0.592957808725603
   0.318155090104437   0.527961480798601   0.592957808725603
   0.568155090104437   0.527961480798601   0.592957808725603
   0.818155090104437   0.527961480798601   0.592957808725603
   0.068155090104437   0.777961480798601   0.592957808725603
   0.318155090104437   0.777961480798601   0.592957808725603
   0.568155090104437   0.777961480798601   0.592957808725603
   0.818155090104437   0.777961480798601   0.592957808725603
   0.068155090104437   0.027961480798601   0.842957808725603
   0.318155090104437   0.027961480798601   0.842957808725603
   0.568155090104437   0.027961480798601   0.842957808725603
   0.818155090104437   0.027961480798601   0.842957808725603
   0.068155090104437   0.277961480798601   0.842957808725603
   0.318155090104437   0.277961480798601   0.842957808725603
   0.568155090104437   0.277961480798601   0.842957808725603
   0.818155090104437   0.277961480798601   0.842957808725603
   0.068155090104437   0.527961480798601   0.842957808725603
   0.318155090104437   0.527961480798601   0.842957808725603
   0.568155090104437   0.527961480798601   0.842957808725603
   0.818155090104437   0.527961480798601   0.842957808725603
   0.068155090104437   0.777961480798601   0.842957808725603
   0.318155090104437   0.777961480798601   0.842957808725603
   0.568155090104437   0.777961480798601   0.842957808725603
   0.818155090104437   0.777961480798601   0.842957808725603
   0.027962901481561   0.092955565666737   0.068155912480344
   0.277962901481561   0.092955565666737   0.068155912480344
   0.527962901481561   0.092955565666737   0.068155912480344
   0.777962901481561   0.092955565666737   0.068155912480344
   0.027962901481561   0.342955565666737   0.068155912480344
   0.277962901481561   0.342955565666737   0.068155912480344
   0.527962901481561   0.342955565666737   0.068155912480344
   0.777962901481561   0.342955565666737   0.068155912480344
   0.027962901481561   0.592955565666737   0.068155912480344
   0.277962901481561   0.592955565666737   0.068155912480344
   0.527962901481561   0.592955565666737   0.068155912480344
   0.777962901481561   0.592955565666737   0.068155912480344
   0.027962901481561   0.842955565666737   0.068155912480344
   0.277962901481561   0.842955565666737   0.068155912480344
   0.527962901481561   0.842955565666737   0.068155912480344
   0.777962901481561   0.842955565666737   0.068155912480344
   0.027962901481561   0.092955565666737   0.318155912480344
   0.277962901481561   0.092955565666737   0.318155912480344
   0.527962901481561   0.092955565666737   0.318155912480344
   0.777962901481561   0.092955565666737   0.318155912480344
   0.027962901481561   0.342955565666737   0.318155912480344
   0.277962901481561   0.342955565666737   0.318155912480344
   0.527962901481561   0.342955565666737   0.318155912480344
   0.777962901481561   0.342955565666737   0.318155912480344
   0.027962901481561   0.592955565666737   0.318155912480344
   0.277962901481561   0.592955565666737   0.318155912480344
   0.527962901481561   0.592955565666737   0.318155912480344
   0.777962901481561   0.592955565666737   0.318155912480344
   0.027962901481561   0.842955565666737   0.318155912480344
   0.277962901481561   0.842955565666737   0.318155912480344
   0.527962901481561   0.842955565666737   0.318155912480344
   0.777962901481561   0.842955565666737   0.318155912480344
   0.027962901481561   0.092955565666737   0.568155912480344
   0.277962901481561   0.092955565666737   0.568155912480344
   0.527962901481561   0.092955565666737   0.568155912480344
   0.777962901481561   0.092955565666737   0.568155912480344
   0.027962901481561   0.342955565666737   0.568155912480344
   0.277962901481561   0.342955565666737   0.568155912480344
   0.527962901481561   0.342955565666737   0.568155912480344
   0.777962901481561   0.342955565666737   0.568155912480344
   0.027962901481561   0.592955565666737   0.568155912480344
   0.277962901481561   0.592955565666737   0.568155912480344
   0.527962901481561   0.592955565666737   0.568155912480344
   0.777962901481561   0.592955565666737   0.568155912480344
   0.027962901481561   0.842955565666737   0.568155912480344
   0.277962901481561   0.842955565666737   0.568155912480344
   0.527962901481561   0.842955565666737   0.568155912480344
   0.777962901481561   0.842955565666737   0.568155912480344
   0.027962901481561   0.092955565666737   0.818155912480344
   0.277962901481561   0.092955565666737   0.818155912480344
   0.527962901481561   0.092955565666737   0.818155912480344
   0.777962901481561   0.092955565666737   0.818155912480344
   0.027962901481561   0.342955565666737   0.818155912480344
   0.277962901481561   0.342955565666737   0.818155912480344
   0.527962901481561   0.342955565666737   0.818155912480344
   0.777962901481561   0.342955565666737   0.818155912480344
   0.027962901481561   0.592955565666737   0.818155912480344
   0.277962901481561   0.592955565666737   0.818155912480344
   0.527962901481561   0.592955565666737   0.818155912480344
   0.777962901481561   0.592955565666737   0.818155912480344
   0.027962901481561   0.842955565666737   0.818155912480344
   0.277962901481561   0.842955565666737   0.818155912480344
   0.527962901481561   0.842955565666737   0.818155912480344
   0.777962901481561   0.842955565666737   0.818155912480344
   0.217956986349696   0.056846655671178   0.222041087352920
   0.467956986349696   0.056846655671178   0.222041087352920
   0.717956986349696   0.056846655671178   0.222041087352920
   0.967956986349696   0.056846655671178   0.222041087352920
   0.217956986349696   0.306846655671178   0.222041087352920
   0.467956986349696   0.306846655671178   0.222041087352920
   0.717956986349696   0.306846655671178   0.222041087352920
   0.967956986349696   0.306846655671178   0.222041087352920
   0.217956986349696   0.556846655671178   0.222041087352920
   0.467956986349696   0.556846655671178   0.222041087352920
   0.717956986349696   0.556846655671178   0.222041087352920
   0.967956986349696   0.556846655671178   0.222041087352920
   0.217956986349696   0.806846655671178   0.222041087352920
   0.467956986349696   0.806846655671178   0.222041087352920
   0.717956986349696   0.806846655671178   0.222041087352920
   0.967956986349696   0.806846655671178   0.222041087352920
   0.217956986349696   0.056846655671178   0.472041087352920
   0.467956986349696   0.056846655671178   0.472041087352920
   0.717956986349696   0.056846655671178   0.472041087352920
   0.967956986349696   0.056846655671178   0.472041087352920
   0.217956986349696   0.306846655671178   0.472041087352920
   0.467956986349696   0.306846655671178   0.472041087352920
   0.717956986349696   0.306846655671178   0.472041087352920
   0.967956986349696   0.306846655671178   0.472041087352920
   0.217956986349696   0.556846655671178   0.472041087352920
   0.467956986349696   0.556846655671178   0.472041087352920
   0.717956986349696   0.556846655671178   0.472041087352920
   0.967956986349696   0.556846655671178   0.472041087352920
   0.217956986349696   0.806846655671178   0.472041087352920
   0.467956986349696   0.806846655671178   0.472041087352920
   0.717956986349696   0.806846655671178   0.472041087352920
   0.967956986349696   0.806846655671178   0.472041087352920
   0.217956986349696   0.056846655671178   0.722041087352920
   0.467956986349696   0.056846655671178   0.722041087352920
   0.717956986349696   0.056846655671178   0.722041087352920
   0.967956986349696   0.056846655671178   0.722041087352920
   0.217956986349696   0.306846655671178   0.722041087352920
   0.467956986349696   0.306846655671178   0.722041087352920
   0.717956986349696   0.306846655671178   0.722041087352920
   0.967956986349696   0.306846655671178   0.722041087352920