 N  H                                   
   1.0000000000000000     
    20.0000000000000000    0.0000000000000000    0.0000000000000000
     0.0000000000000000   20.0000000000000000    0.0000000000000000
     0.0000000000000000    0.0000000000000000   20.0000000000000000
   N    H 
     1     3
Direct
  0.2534574498302078  0.2534580299395230  0.2534583446370178
  0.2954536233047591  0.2688016445598009  0.2292154935318820
  0.2688027370336101  0.2292164008901878  0.2954543268398950
  0.2292166898314321  0.2954549246105032  0.2684028349912059

  0.00000000E+00  0.00000000E+00  0.00000000E+00
  0.00000000E+00  0.00000000E+00  0.00000000E+00
  0.00000000E+00  0.00000000E+00  0.00000000E+00
  0.00000000E+00  0.00000000E+00  0.00000000E+00
