 N  H                                   
   1.0000000000000000     
    20.0000000000000000    0.0000000000000000    0.0000000000000000
     0.0000000000000000   20.0000000000000000    0.0000000000000000
     0.0000000000000000    0.0000000000000000   20.0000000000000000
   N    H 
     1     3
Direct
  0.2534574498302057  0.2534580299395220  0.2534583446370143
  0.2954536233047585  0.2688016445597990  0.2292154935318806
  0.2688027370336070  0.2292164008901855  0.2954543268398923
  0.2292166898314310  0.2954549246105012  0.2688028349912064

  0.00000000E+00  0.00000000E+00  0.00000000E+00
  0.00000000E+00  0.00000000E+00  0.00000000E+00
  0.00000000E+00  0.00000000E+00  0.00000000E+00
  0.00000000E+00  0.00000000E+00  0.00000000E+00
