 N  C  H 
 1.0000000000000000
    22.0000000000000000    0.0000000000000000    0.0000000000000000
     0.0000000000000000   22.0000000000000000    0.0000000000000000
     0.0000000000000000    0.0000000000000000   22.0000000000000000
 N   C   H  
   2   4   4
Cartesian
  7.0745533623760712  5.9250028471128111  4.8664858846431533
  4.2504466376292109  5.9250191528859490  4.8665041153572322
  6.3615906998651495  4.8720329248183027  5.3007395111462197
  4.9634027473521503  4.8720409976486803  5.3007485369960268
  4.9634093001411550  6.9779890751792326  4.4322504888548497
  6.3615972526521078  6.9779810023488569  4.4322414630050426
  6.9182665328620763  4.0116154043456094  5.6555728452334195
  4.4067215598904754  4.0116299054522502  5.6555890582311781
  4.4067334671547833  7.8384065956572773  4.0774171547653451
  6.9182784401032107  7.8383920945506507  4.0774009417675856
