super cell
        1.0000000000
  10.804334372003490  -0.000016145803465  -0.088450072897977
  -0.000027323519517  18.306484454326295  -0.000002692916245
  -3.989641599396241   0.000002569360983  20.871937436416516
   72   72   72  216
 Direct
   0.111547318642057   0.028475695655178   0.086085734958159
   0.444880651975390   0.028475695655178   0.086085734958159
   0.778213985308724   0.028475695655178   0.086085734958159
   0.111547318642057   0.528475695655178   0.086085734958159
   0.444880651975390   0.528475695655178   0.086085734958159
   0.778213985308724   0.528475695655178   0.086085734958159
   0.111547318642057   0.028475695655178   0.419419068291492
   0.444880651975390   0.028475695655178   0.419419068291492
   0.778213985308724   0.028475695655178   0.419419068291492
   0.111547318642057   0.528475695655178   0.419419068291492
   0.444880651975390   0.528475695655178   0.419419068291492
   0.778213985308724   0.528475695655178   0.419419068291492
   0.111547318642057   0.028475695655178   0.752752401624826
   0.444880651975390   0.028475695655178   0.752752401624826
   0.778213985308724   0.028475695655178   0.752752401624826
   0.111547318642057   0.528475695655178   0.752752401624826
   0.444880651975390   0.528475695655178   0.752752401624826
   0.778213985308724   0.528475695655178   0.752752401624826
   0.221787873141609   0.471520427065017   0.247249059593014
   0.555121206474942   0.471520427065017   0.247249059593014
   0.888454539808275   0.471520427065017   0.247249059593014
   0.221787873141609   0.971520427065017   0.247249059593014
   0.555121206474942   0.971520427065017   0.247249059593014
   0.888454539808275   0.971520427065017   0.247249059593014
   0.221787873141609   0.471520427065017   0.580582392926347
   0.555121206474942   0.471520427065017   0.580582392926347
   0.888454539808275   0.471520427065017   0.580582392926347
   0.221787873141609   0.971520427065017   0.580582392926347
   0.555121206474942   0.971520427065017   0.580582392926347
   0.888454539808275   0.971520427065017   0.580582392926347
   0.221787873141609   0.471520427065017   0.913915726259680
   0.555121206474942   0.471520427065017   0.913915726259680
   0.888454539808275   0.471520427065017   0.913915726259680
   0.221787873141609   0.971520427065017   0.913915726259680
   0.555121206474942   0.971520427065017   0.913915726259680
   0.888454539808275   0.971520427065017   0.913915726259680
   0.055121714482454   0.278474268544720   0.080583449898528
   0.388455047815788   0.278474268544720   0.080583449898528
   0.721788381149121   0.278474268544720   0.080583449898528
   0.055121714482454   0.778474268544720   0.080583449898528
   0.388455047815788   0.778474268544720   0.080583449898528
   0.721788381149121   0.778474268544720   0.080583449898528
   0.055121714482454   0.278474268544720   0.413916783231861
   0.388455047815788   0.278474268544720   0.413916783231861
   0.721788381149121   0.278474268544720   0.413916783231861
   0.055121714482454   0.778474268544720   0.413916783231861
   0.388455047815788   0.778474268544720   0.413916783231861
   0.721788381149121   0.778474268544720   0.413916783231861
   0.055121714482454   0.278474268544720   0.747250116565195
   0.388455047815788   0.278474268544720   0.747250116565195
   0.721788381149121   0.278474268544720   0.747250116565195
   0.055121714482454   0.778474268544720   0.747250116565195
   0.388455047815788   0.778474268544720   0.747250116565195
   0.721788381149121   0.778474268544720   0.747250116565195
   0.278212711541442   0.221519212222738   0.252752657813932
   0.611546044874775   0.221519212222738   0.252752657813932
   0.944879378208108   0.221519212222738   0.252752657813932
   0.278212711541442   0.721519212222738   0.252752657813932
   0.611546044874775   0.721519212222738   0.252752657813932
   0.944879378208108   0.721519212222738   0.252752657813932
   0.278212711541442   0.221519212222738   0.586085991147265
   0.611546044874775   0.221519212222738   0.586085991147265
   0.944879378208108   0.221519212222738   0.586085991147265
   0.278212711541442   0.721519212222738   0.586085991147265
   0.611546044874775   0.721519212222738   0.586085991147265
   0.944879378208108   0.721519212222738   0.586085991147265
   0.278212711541442   0.221519212222738   0.919419324480598
   0.611546044874775   0.221519212222738   0.919419324480598
   0.944879378208108   0.221519212222738   0.919419324480598
   0.278212711541442   0.721519212222738   0.919419324480598
   0.611546044874775   0.721519212222738   0.919419324480598
   0.944879378208108   0.721519212222738   0.919419324480598
   0.159453260442021   0.466348808334534   0.083579961936513
   0.492786593775354   0.466348808334534   0.083579961936513
   0.826119927108688   0.466348808334534   0.083579961936513
   0.159453260442021   0.966348808334534   0.083579961936513
   0.492786593775354   0.966348808334534   0.083579961936513
   0.826119927108688   0.966348808334534   0.083579961936513
   0.159453260442021   0.466348808334534   0.416913295269846
   0.492786593775354   0.466348808334534   0.416913295269846
   0.826119927108688   0.466348808334534   0.416913295269846
   0.159453260442021   0.966348808334534   0.416913295269846
   0.492786593775354   0.966348808334534   0.416913295269846
   0.826119927108688   0.966348808334534   0.416913295269846
   0.159453260442021   0.466348808334534   0.750246628603179
   0.492786593775354   0.466348808334534   0.750246628603179
   0.826119927108688   0.466348808334534   0.750246628603179
   0.159453260442021   0.966348808334534   0.750246628603179
   0.492786593775354   0.966348808334534   0.750246628603179
   0.826119927108688   0.966348808334534   0.750246628603179
   0.173880744468282   0.033647069589836   0.249754576607619
   0.507214077801616   0.033647069589836   0.249754576607619
   0.840547411134949   0.033647069589836   0.249754576607619
   0.173880744468282   0.533647069589836   0.249754576607619
   0.507214077801616   0.533647069589836   0.249754576607619
   0.840547411134949   0.533647069589836   0.249754576607619
   0.173880744468282   0.033647069589836   0.583087909940952
   0.507214077801616   0.033647069589836   0.583087909940952
   0.840547411134949   0.033647069589836   0.583087909940952
   0.173880744468282   0.533647069589836   0.583087909940952
   0.507214077801616   0.533647069589836   0.583087909940952
   0.840547411134949   0.533647069589836   0.583087909940952
   0.173880744468282   0.033647069589836   0.916421243274286
   0.507214077801616   0.033647069589836   0.916421243274286
   0.840547411134949   0.033647069589836   0.916421243274286
   0.173880744468282   0.533647069589836   0.916421243274286
   0.507214077801616   0.533647069589836   0.916421243274286
   0.840547411134949   0.533647069589836   0.916421243274286
   0.007214649025603   0.216345715311889   0.083089733275888
   0.340547982358937   0.216345715311889   0.083089733275888
   0.673881315692270   0.216345715311889   0.083089733275888
   0.007214649025603   0.716345715311889   0.083089733275888
   0.340547982358937   0.716345715311889   0.083089733275888
   0.673881315692270   0.716345715311889   0.083089733275888
   0.007214649025603   0.216345715311889   0.416423066609222
   0.340547982358937   0.216345715311889   0.416423066609222
   0.673881315692270   0.216345715311889   0.416423066609222
   0.007214649025603   0.716345715311889   0.416423066609222
   0.340547982358937   0.716345715311889   0.416423066609222
   0.673881315692270   0.716345715311889   0.416423066609222
   0.007214649025603   0.216345715311889   0.749756399942555
   0.340547982358937   0.216345715311889   0.749756399942555
   0.673881315692270   0.216345715311889   0.749756399942555
   0.007214649025603   0.716345715311889   0.749756399942555
   0.340547982358937   0.716345715311889   0.749756399942555
   0.673881315692270   0.716345715311889   0.749756399942555
   0.326120316146550   0.283647695197757   0.250246428635736
   0.659453649479884   0.283647695197757   0.250246428635736
   0.992786982813217   0.283647695197757   0.250246428635736
   0.326120316146550   0.783647695197756   0.250246428635736
   0.659453649479884   0.783647695197756   0.250246428635736
   0.992786982813217   0.783647695197756   0.250246428635736
   0.326120316146550   0.283647695197757   0.583579761969070
   0.659453649479884   0.283647695197757   0.583579761969070
   0.992786982813217   0.283647695197757   0.583579761969070
   0.326120316146550   0.783647695197756   0.583579761969070
   0.659453649479884   0.783647695197756   0.583579761969070
   0.992786982813217   0.783647695197756   0.583579761969070
   0.326120316146550   0.283647695197757   0.916913095302403
   0.659453649479884   0.283647695197757   0.916913095302403
   0.992786982813217   0.283647695197757   0.916913095302403
   0.326120316146550   0.783647695197756   0.916913095302403
   0.659453649479884   0.783647695197756   0.916913095302403
   0.992786982813217   0.783647695197756   0.916913095302403
   0.098204823474297   0.078398074355220   0.039420029774749
   0.431538156807631   0.078398074355220   0.039420029774749
   0.764871490140964   0.078398074355220   0.039420029774749
   0.098204823474297   0.578398074355220   0.039420029774749
   0.431538156807631   0.578398074355220   0.039420029774749
   0.764871490140964   0.578398074355220   0.039420029774749
   0.098204823474297   0.078398074355220   0.372753363108082
   0.431538156807631   0.078398074355220   0.372753363108082
   0.764871490140964   0.078398074355220   0.372753363108082
   0.098204823474297   0.578398074355220   0.372753363108082
   0.431538156807631   0.578398074355220   0.372753363108082
   0.764871490140964   0.578398074355220   0.372753363108082
   0.098204823474297   0.078398074355220   0.706086696441415
   0.431538156807631   0.078398074355220   0.706086696441415
   0.764871490140964   0.078398074355220   0.706086696441415
   0.098204823474297   0.578398074355220   0.706086696441415
   0.431538156807631   0.578398074355220   0.706086696441415
   0.764871490140964   0.578398074355220   0.706086696441415
   0.235131255163417   0.421598408610405   0.293914216269456
   0.568464588496750   0.421598408610405   0.293914216269456
   0.901797921830083   0.421598408610405   0.293914216269456
   0.235131255163417   0.921598408610405   0.293914216269456
   0.568464588496750   0.921598408610405   0.293914216269456
   0.901797921830083   0.921598408610405   0.293914216269456
   0.235131255163417   0.421598408610405   0.627247549602790
   0.568464588496750   0.421598408610405   0.627247549602790
   0.901797921830083   0.421598408610405   0.627247549602790
   0.235131255163417   0.921598408610405   0.627247549602790
   0.568464588496750   0.921598408610405   0.627247549602790
   0.901797921830083   0.921598408610405   0.627247549602790
   0.235131255163417   0.421598408610405   0.960580882936123
   0.568464588496750   0.421598408610405   0.960580882936123
   0.901797921830083   0.421598408610405   0.960580882936123
   0.235131255163417   0.921598408610405   0.960580882936123
   0.568464588496750   0.921598408610405   0.960580882936123
   0.901797921830083   0.921598408610405   0.960580882936123
   0.068462146735833   0.328395664976901   0.127247256352819
   0.401795480069166   0.328395664976901   0.127247256352819
   0.735128813402499   0.328395664976901   0.127247256352819
   0.068462146735833   0.828395664976902   0.127247256352819
   0.401795480069166   0.828395664976902   0.127247256352819
   0.735128813402499   0.828395664976902   0.127247256352819
   0.068462146735833   0.328395664976901   0.460580589686152
   0.401795480069166   0.328395664976901   0.460580589686152
   0.735128813402499   0.328395664976901   0.460580589686152
   0.068462146735833   0.828395664976902   0.460580589686152
   0.401795480069166   0.828395664976902   0.460580589686152
   0.735128813402499   0.828395664976902   0.460580589686152
   0.068462146735833   0.328395664976901   0.793913923019485
   0.401795480069166   0.328395664976901   0.793913923019485
   0.735128813402499   0.328395664976901   0.793913923019485
   0.068462146735833   0.828395664976902   0.793913923019485
   0.401795480069166   0.828395664976902   0.793913923019485
   0.735128813402499   0.828395664976902   0.793913923019485
   0.264871470427472   0.171597990404924   0.206087880373055
   0.598204803760806   0.171597990404924   0.206087880373055
   0.931538137094139   0.171597990404924   0.206087880373055
   0.264871470427472   0.671597990404924   0.206087880373055
   0.598204803760806   0.671597990404924   0.206087880373055
   0.931538137094139   0.671597990404924   0.206087880373055
   0.264871470427472   0.171597990404924   0.539421213706388
   0.598204803760806   0.171597990404924   0.539421213706388
   0.931538137094139   0.171597990404924   0.539421213706388
   0.264871470427472   0.671597990404924   0.539421213706388
   0.598204803760806   0.671597990404924   0.539421213706388
   0.931538137094139   0.671597990404924   0.539421213706388
   0.264871470427472   0.171597990404924   0.872754547039722
   0.598204803760806   0.171597990404924   0.872754547039722
   0.931538137094139   0.171597990404924   0.872754547039722
   0.264871470427472   0.671597990404924   0.872754547039722
   0.598204803760806   0.671597990404924   0.872754547039722
   0.931538137094139   0.671597990404924   0.872754547039722
   0.062779435313743   0.128624895039169   0.047080969684061
   0.396112768647077   0.128624895039169   0.047080969684061
   0.729446101980410   0.128624895039169   0.047080969684061
   0.062779435313743   0.628624895039169   0.047080969684061
   0.396112768647077   0.628624895039169   0.047080969684061
   0.729446101980410   0.628624895039169   0.047080969684061
   0.062779435313743   0.128624895039169   0.380414303017394
   0.396112768647077   0.128624895039169   0.380414303017394
   0.729446101980410   0.128624895039169   0.380414303017394
   0.062779435313743   0.628624895039169   0.380414303017394
   0.396112768647077   0.628624895039169   0.380414303017394
   0.729446101980410   0.628624895039169   0.380414303017394
   0.062779435313743   0.128624895039169   0.713747636350727
   0.396112768647077   0.128624895039169   0.713747636350727
   0.729446101980410   0.128624895039169   0.713747636350727
   0.062779435313743   0.628624895039169   0.713747636350727
   0.396112768647077   0.628624895039169   0.713747636350727
   0.729446101980410   0.628624895039169   0.713747636350727
   0.270556732407155   0.371371606353518   0.286253492215207
   0.603890065740489   0.371371606353518   0.286253492215207
   0.937223399073822   0.371371606353518   0.286253492215207
   0.270556732407155   0.871371606353518   0.286253492215207
   0.603890065740489   0.871371606353518   0.286253492215207
   0.937223399073822   0.871371606353518   0.286253492215207
   0.270556732407155   0.371371606353518   0.619586825548540
   0.603890065740489   0.371371606353518   0.619586825548540
   0.937223399073822   0.371371606353518   0.619586825548540
   0.270556732407155   0.871371606353518   0.619586825548540
   0.603890065740489   0.871371606353518   0.619586825548540
   0.937223399073822   0.871371606353518   0.619586825548540
   0.270556732407155   0.371371606353518   0.952920158881873
   0.603890065740489   0.371371606353518   0.952920158881873
   0.937223399073822   0.371371606353518   0.952920158881873
   0.270556732407155   0.871371606353518   0.952920158881873
   0.603890065740489   0.871371606353518   0.952920158881873
   0.937223399073822   0.871371606353518   0.952920158881873
   0.103887775181524   0.378623532698810   0.119585882226415
   0.437221108514857   0.378623532698810   0.119585882226415
   0.770554441848190   0.378623532698810   0.119585882226415
   0.103887775181524   0.878623532698810   0.119585882226415
   0.437221108514857   0.878623532698810   0.119585882226415
   0.770554441848190   0.878623532698810   0.119585882226415
   0.103887775181524   0.378623532698810   0.452919215559748
   0.437221108514857   0.378623532698810   0.452919215559748
   0.770554441848190   0.378623532698810   0.452919215559748
   0.103887775181524   0.878623532698810   0.452919215559748
   0.437221108514857   0.878623532698810   0.452919215559748
   0.770554441848190   0.878623532698810   0.452919215559748
   0.103887775181524   0.378623532698810   0.786252548893081
   0.437221108514857   0.378623532698810   0.786252548893081
   0.770554441848190   0.378623532698810   0.786252548893081
   0.103887775181524   0.878623532698810   0.786252548893081
   0.437221108514857   0.878623532698810   0.786252548893081
   0.770554441848190   0.878623532698810   0.786252548893081
   0.229445249531021   0.121370140393144   0.213749076068529
   0.562778582864354   0.121370140393144   0.213749076068529
   0.896111916197687   0.121370140393144   0.213749076068529
   0.229445249531021   0.621370140393144   0.213749076068529
   0.562778582864354   0.621370140393144   0.213749076068529
   0.896111916197687   0.621370140393144   0.213749076068529
   0.229445249531021   0.121370140393144   0.547082409401862
   0.562778582864354   0.121370140393144   0.547082409401862
   0.896111916197687   0.121370140393144   0.547082409401862
   0.229445249531021   0.621370140393144   0.547082409401862
   0.562778582864354   0.621370140393144   0.547082409401862
   0.896111916197687   0.621370140393144   0.547082409401862
   0.229445249531021   0.121370140393144   0.880415742735195
   0.562778582864354   0.121370140393144   0.880415742735195
   0.896111916197687   0.121370140393144   0.880415742735195
   0.229445249531021   0.621370140393144   0.880415742735195
   0.562778582864354   0.621370140393144   0.880415742735195
   0.896111916197687   0.621370140393144   0.880415742735195
   0.124877267386383   0.066579967301874   0.330225881949473
   0.458210600719716   0.066579967301874   0.330225881949473
   0.791543934053050   0.066579967301874   0.330225881949473
   0.124877267386383   0.566579967301874   0.330225881949473
   0.458210600719716   0.566579967301874   0.330225881949473
   0.791543934053050   0.566579967301874   0.330225881949473
   0.124877267386383   0.066579967301874   0.663559215282806
   0.458210600719716   0.066579967301874   0.663559215282806
   0.791543934053050   0.066579967301874   0.663559215282806
   0.124877267386383   0.566579967301874   0.663559215282806
   0.458210600719716   0.566579967301874   0.663559215282806
   0.791543934053050   0.566579967301874   0.663559215282806
   0.124877267386383   0.066579967301874   0.996892548616140
   0.458210600719716   0.066579967301874   0.996892548616140
   0.791543934053050   0.066579967301874   0.996892548616140
   0.124877267386383   0.566579967301874   0.996892548616140
   0.458210600719716   0.566579967301874   0.996892548616140
   0.791543934053050   0.566579967301874   0.996892548616140
   0.208458445923756   0.433416306287323   0.003108413883501
   0.541791779257090   0.433416306287323   0.003108413883501
   0.875125112590423   0.433416306287323   0.003108413883501
   0.208458445923756   0.933416306287323   0.003108413883501
   0.541791779257090   0.933416306287323   0.003108413883501
   0.875125112590423   0.933416306287323   0.003108413883501
   0.208458445923756   0.433416306287323   0.336441747216834
   0.541791779257090   0.433416306287323   0.336441747216834
   0.875125112590423   0.433416306287323   0.336441747216834
   0.208458445923756   0.933416306287323   0.336441747216834
   0.541791779257090   0.933416306287323   0.336441747216834
   0.875125112590423   0.933416306287323   0.336441747216834
   0.208458445923756   0.433416306287323   0.669775080550168
   0.541791779257090   0.433416306287323   0.669775080550168
   0.875125112590423   0.433416306287323   0.669775080550168
   0.208458445923756   0.933416306287323   0.669775080550168
   0.541791779257090   0.933416306287323   0.669775080550168
   0.875125112590423   0.933416306287323   0.669775080550168
   0.041789784928997   0.316578972008483   0.169774945104041
   0.375123118262331   0.316578972008483   0.169774945104041
   0.708456451595664   0.316578972008483   0.169774945104041
   0.041789784928997   0.816578972008483   0.169774945104041
   0.375123118262331   0.816578972008483   0.169774945104041
   0.708456451595664   0.816578972008483   0.169774945104041
   0.041789784928997   0.316578972008483   0.503108278437374
   0.375123118262331   0.316578972008483   0.503108278437374
   0.708456451595664   0.316578972008483   0.503108278437374
   0.041789784928997   0.816578972008483   0.503108278437374
   0.375123118262331   0.816578972008483   0.503108278437374
   0.708456451595664   0.816578972008483   0.503108278437374
   0.041789784928997   0.316578972008483   0.836441611770708
   0.375123118262331   0.316578972008483   0.836441611770708
   0.708456451595664   0.316578972008483   0.836441611770708
   0.041789784928997   0.816578972008483   0.836441611770708
   0.375123118262331   0.816578972008483   0.836441611770708
   0.708456451595664   0.816578972008483   0.836441611770708
   0.291543927328480   0.183414930955052   0.163560369358111
   0.624877260661814   0.183414930955052   0.163560369358111
   0.958210593995147   0.183414930955052   0.163560369358111
   0.291543927328480   0.683414930955052   0.163560369358111
   0.624877260661814   0.683414930955052   0.163560369358111
   0.958210593995147   0.683414930955052   0.163560369358111
   0.291543927328480   0.183414930955052   0.496893702691444
   0.624877260661814   0.183414930955052   0.496893702691444
   0.958210593995147   0.183414930955052   0.496893702691444
   0.291543927328480   0.683414930955052   0.496893702691444
   0.624877260661814   0.683414930955052   0.496893702691444
   0.958210593995147   0.683414930955052   0.496893702691444
   0.291543927328480   0.183414930955052   0.830227036024777
   0.624877260661814   0.183414930955052   0.830227036024777
   0.958210593995147   0.183414930955052   0.830227036024777
   0.291543927328480   0.683414930955052   0.830227036024777
   0.624877260661814   0.683414930955052   0.830227036024777
   0.958210593995147   0.683414930955052   0.830227036024777
   0.077916260618441   0.046039448845823   0.129248017232516
   0.411249593951774   0.046039448845823   0.129248017232516
   0.744582927285108   0.046039448845823   0.129248017232516
   0.077916260618441   0.546039448845823   0.129248017232516
   0.411249593951774   0.546039448845823   0.129248017232516
   0.744582927285108   0.546039448845823   0.129248017232516
   0.077916260618441   0.046039448845823   0.462581350565849
   0.411249593951774   0.046039448845823   0.462581350565849
   0.744582927285108   0.046039448845823   0.462581350565849
   0.077916260618441   0.546039448845823   0.462581350565849
   0.411249593951774   0.546039448845823   0.462581350565849
   0.744582927285108   0.546039448845823   0.462581350565849
   0.077916260618441   0.046039448845823   0.795914683899183
   0.411249593951774   0.046039448845823   0.795914683899183
   0.744582927285108   0.046039448845823   0.795914683899183
   0.077916260618441   0.546039448845823   0.795914683899183
   0.411249593951774   0.546039448845823   0.795914683899183
   0.744582927285108   0.546039448845823   0.795914683899183
   0.255419159074896   0.453957653455204   0.204086159161888
   0.588752492408229   0.453957653455204   0.204086159161888
   0.922085825741562   0.453957653455204   0.204086159161888
   0.255419159074896   0.953957653455204   0.204086159161888
   0.588752492408229   0.953957653455204   0.204086159161888
   0.922085825741562   0.953957653455204   0.204086159161888
   0.255419159074896   0.453957653455204   0.537419492495222
   0.588752492408229   0.453957653455204   0.537419492495222
   0.922085825741562   0.453957653455204   0.537419492495222
   0.255419159074896   0.953957653455204   0.537419492495222
   0.588752492408229   0.953957653455204   0.537419492495222
   0.922085825741562   0.953957653455204   0.537419492495222
   0.255419159074896   0.453957653455204   0.870752825828555
   0.588752492408229   0.453957653455204   0.870752825828555
   0.922085825741562   0.453957653455204   0.870752825828555
   0.255419159074896   0.953957653455204   0.870752825828555
   0.588752492408229   0.953957653455204   0.870752825828555
   0.922085825741562   0.953957653455204   0.870752825828555
   0.088752854517616   0.296035333243059   0.037420247294744
   0.422086187850949   0.296035333243059   0.037420247294744
   0.755419521184283   0.296035333243059   0.037420247294744
   0.088752854517616   0.796035333243059   0.037420247294744
   0.422086187850949   0.796035333243059   0.037420247294744
   0.755419521184283   0.796035333243059   0.037420247294744
   0.088752854517616   0.296035333243059   0.370753580628077
   0.422086187850949   0.296035333243059   0.370753580628077
   0.755419521184283   0.296035333243059   0.370753580628077
   0.088752854517616   0.796035333243059   0.370753580628077
   0.422086187850949   0.796035333243059   0.370753580628077
   0.755419521184283   0.796035333243059   0.370753580628077
   0.088752854517616   0.296035333243059   0.704086913961411
   0.422086187850949   0.296035333243059   0.704086913961411
   0.755419521184283   0.296035333243059   0.704086913961411
   0.088752854517616   0.796035333243059   0.704086913961411
   0.422086187850949   0.796035333243059   0.704086913961411
   0.755419521184283   0.796035333243059   0.704086913961411
   0.244581819353718   0.203957232849577   0.295915245721646
   0.577915152687052   0.203957232849577   0.295915245721646
   0.911248486020385   0.203957232849577   0.295915245721646
   0.244581819353718   0.703957232849577   0.295915245721646
   0.577915152687052   0.703957232849577   0.295915245721646
   0.911248486020385   0.703957232849577   0.295915245721646
   0.244581819353718   0.203957232849577   0.629248579054979
   0.577915152687052   0.203957232849577   0.629248579054979
   0.911248486020385   0.203957232849577   0.629248579054979
   0.244581819353718   0.703957232849577   0.629248579054979
   0.577915152687052   0.703957232849577   0.629248579054979
   0.911248486020385   0.703957232849577   0.629248579054979
   0.244581819353718   0.203957232849577   0.962581912388312
   0.577915152687052   0.203957232849577   0.962581912388312
   0.911248486020385   0.203957232849577   0.962581912388312
   0.244581819353718   0.703957232849577   0.962581912388312
   0.577915152687052   0.703957232849577   0.962581912388312
   0.911248486020385   0.703957232849577   0.962581912388312
