 C  H 
 1.0000000000000000
    16.8288000000000011    0.0000000000000000    0.0000000000000000
     0.0000000000000000   11.9806000000000008    0.0000000000000000
     4.0080000000000009    0.0000000000000000   18.1121400000000001
 C   H  
 224 160
Cartesian
 15.1860137082454223  0.1547354880542050  3.3429158120885134
 16.0010516391241211  0.9357641565123425  2.5599753916225274
 16.4234649579895802  0.4919027603784831  1.2708827711753288
  0.4156500363092648  1.2714556682388869  0.4448154803766633
  7.5812058359616863  5.1787355218766979  0.8124209838783936
  6.7374561798083432  4.3991805062134359  1.6568043147268434
  6.3362312504952021  4.8691164763955097  2.8831863629930483
 11.2515941748227366  0.8115644844231467  8.2436489922815959
 18.4171499725327266  4.7188443343751594  8.6112545014409925
  2.4093350515020964  5.4983972429610173  7.7851872081211386
 12.0953438314445698  1.5911194994792806  7.3992656713765967
  2.8317483718802108  5.0545358459584770  6.4960945895677433
 12.4965687622696251  1.1211835236765506  6.1728836189738931
  3.6467863032379020  5.8355645119457957  5.7131541729573811
 16.2683859792831313  3.1498861753015723  5.7131539272678129
  2.5644140226877310  2.8404138476727487  3.3429160647400011
 15.4533483874505411  3.9309148345260816  6.4960947333461343
  3.3794516185477770  2.0593851989779739  2.5599752632505397
 15.0309349845299334  3.4870533224910010  7.7851875724098250
  3.8018650282652295  2.5032467155794946  1.2708824230395392
 14.2099500773541010  4.2666058709064325  8.6112550999571340
  4.6228499302706547  1.7236941650482676  0.4448149000428661
 15.4587941134488300  2.1835858811458393  8.2436488211716465
  3.3740058998509159  3.8067141543393399  0.8124211785337715
 16.3025433738290957  1.4040307734475135  7.3992651293685991
  2.5302566317235220  4.5862692552432325  1.6568048649651113
 16.7037681674660057  1.8739670725584296  6.1728830003283877
  2.1290318321878017  4.1163329512649085  2.8831869975973139
 15.1860137082454223  6.1450354880542051  3.3429158120885134
 16.0010516391241211  6.9260641565123429  2.5599753916225274
 16.4234649579895802  6.4822027603784838  1.2708827711753288
  0.4156500363092648  7.2617556682388873  0.4448154803766633
  7.5812058359616863 11.1690355218766975  0.8124209838783936
  6.7374561798083432 10.3894805062134363  1.6568043147268434
  6.3362312504952021 10.8594164763955092  2.8831863629930483
 11.2515941748227366  6.8018644844231471  8.2436489922815959
 18.4171499725327266 10.7091443343751607  8.6112545014409925
  2.4093350515020964 11.4886972429610168  7.7851872081211386
 12.0953438314445698  7.5814194994792814  7.3992656713765967
  2.8317483718802108 11.0448358459584774  6.4960945895677433
 12.4965687622696251  7.1114835236765508  6.1728836189738931
  3.6467863032379020 11.8258645119457952  5.7131541729573811
 16.2683859792831313  9.1401861753015723  5.7131539272678129
  2.5644140226877310  8.8307138476727491  3.3429160647400011
 15.4533483874505411  9.9212148345260829  6.4960947333461343
  3.3794516185477770  8.0496851989779739  2.5599752632505397
 15.0309349845299334  9.4773533224910018  7.7851875724098250
  3.8018650282652295  8.4935467155794946  1.2708824230395392
 14.2099500773541010 10.2569058709064329  8.6112550999571340
  4.6228499302706547  7.7139941650482680  0.4448149000428661
 15.4587941134488300  8.1738858811458392  8.2436488211716465
  3.3740058998509159  9.7970141543393403  0.8124211785337715
 16.3025433738290957  7.3943307734475141  7.3992651293685991
  2.5302566317235220 10.5765692552432320  1.6568048649651113
 16.7037681674660057  7.8642670725584303  6.1728830003283877
  2.1290318321878017 10.1066329512649098  2.8831869975973139
  6.7716137082454217  0.1547354880542050  3.3429158120885134
  7.5866516391241223  0.9357641565123425  2.5599753916225274
  8.0090649579895796  0.4919027603784831  1.2708827711753288
  8.8300500363092649  1.2714556682388869  0.4448154803766633
 15.9956058359616868  5.1787355218766979  0.8124209838783936
 15.1518561798083446  4.3991805062134359  1.6568043147268434
 14.7506312504952035  4.8691164763955097  2.8831863629930483
  2.8371941748227361  0.8115644844231467  8.2436489922815959
 10.0027499725327242  4.7188443343751594  8.6112545014409925
 10.8237350515020978  5.4983972429610173  7.7851872081211386
  3.6809438314445684  1.5911194994792806  7.3992656713765967
 11.2461483718802118  5.0545358459584770  6.4960945895677433
  4.0821687622696219  1.1211835236765506  6.1728836189738931
 12.0611863032379034  5.8355645119457957  5.7131541729573811
  7.8539859792831317  3.1498861753015723  5.7131539272678129
 10.9788140226877307  2.8404138476727487  3.3429160647400011
  7.0389483874505414  3.9309148345260816  6.4960947333461343
 11.7938516185477766  2.0593851989779739  2.5599752632505397
  6.6165349845299311  3.4870533224910010  7.7851875724098250
 12.2162650282652301  2.5032467155794946  1.2708824230395392
  5.7955500773541004  4.2666058709064325  8.6112550999571340
 13.0372499302706544  1.7236941650482676  0.4448149000428661
  7.0443941134488286  2.1835858811458393  8.2436488211716465
 11.7884058998509165  3.8067141543393399  0.8124211785337715
  7.8881433738290934  1.4040307734475135  7.3992651293685991
 10.9446566317235217  4.5862692552432325  1.6568048649651113
  8.2893681674660051  1.8739670725584296  6.1728830003283877
 10.5434318321878031  4.1163329512649085  2.8831869975973139
 17.1900137082454236  0.1547354880542050 12.3989858120885135
 18.0050516391241224  0.9357641565123425 11.6160453916225279
 18.4274649579895815  0.4919027603784831 10.3269527711753284
  2.4196500363092652  1.2714556682388869  9.5008854803766631
  9.5852058359616876  5.1787355218766979  9.8684909838783934
  8.7414561798083437  4.3991805062134359 10.7128743147268430
  8.3402312504952025  4.8691164763955097 11.9392563629930493
 13.2555941748227362  0.8115644844231467 17.2997189922815977
 20.4211499725327243  4.7188443343751594 17.6673245014409943
  4.4133350515020968  5.4983972429610173 16.8412572081211387
 14.0993438314445694  1.5911194994792806 16.4553356713765950
  4.8357483718802108  5.0545358459584770 15.5521645895677434
 14.5005687622696247  1.1211835236765506 15.2289536189738932
  5.6507863032379024  5.8355645119457957 14.7692241729573794
 18.2723859792831327  3.1498861753015723 14.7692239272678130
  4.5684140226877314  2.8404138476727487 12.3989860647400008
 17.4573483874505442  3.9309148345260816 15.5521647333461370
  5.3834516185477765  2.0593851989779739 11.6160452632505393
 17.0349349845299329  3.4870533224910010 16.8412575724098232
  5.8058650282652300  2.5032467155794946 10.3269524230395415
 16.2139500773541023  4.2666058709064325 17.6673250999571323
  6.6268499302706552  1.7236941650482676  9.5008849000428661
 17.4627941134488296  2.1835858811458393 17.2997188211716448
  5.3780058998509173  3.8067141543393399  9.8684911785337714
 18.3065433738290935  1.4040307734475135 16.4553351293685992
  4.5342566317235224  4.5862692552432325 10.7128748649651140
 18.7077681674660070  1.8739670725584296 15.2289530003283904
  4.1330318321878021  4.1163329512649085 11.9392569975973135
  6.7716137082454217  6.1450354880542051  3.3429158120885134
  7.5866516391241223  6.9260641565123429  2.5599753916225274
  8.0090649579895796  6.4822027603784838  1.2708827711753288
  8.8300500363092649  7.2617556682388873  0.4448154803766633
 15.9956058359616868 11.1690355218766975  0.8124209838783936
 15.1518561798083446 10.3894805062134363  1.6568043147268434
 14.7506312504952035 10.8594164763955092  2.8831863629930483
  2.8371941748227361  6.8018644844231471  8.2436489922815959
 10.0027499725327242 10.7091443343751607  8.6112545014409925
 10.8237350515020978 11.4886972429610168  7.7851872081211386
  3.6809438314445684  7.5814194994792814  7.3992656713765967
 11.2461483718802118 11.0448358459584774  6.4960945895677433
  4.0821687622696219  7.1114835236765508  6.1728836189738931
 12.0611863032379034 11.8258645119457952  5.7131541729573811
  7.8539859792831317  9.1401861753015723  5.7131539272678129
 10.9788140226877307  8.8307138476727491  3.3429160647400011
  7.0389483874505414  9.9212148345260829  6.4960947333461343
 11.7938516185477766  8.0496851989779739  2.5599752632505397
  6.6165349845299311  9.4773533224910018  7.7851875724098250
 12.2162650282652301  8.4935467155794946  1.2708824230395392
  5.7955500773541004 10.2569058709064329  8.6112550999571340
 13.0372499302706544  7.7139941650482680  0.4448149000428661
  7.0443941134488286  8.1738858811458392  8.2436488211716465
 11.7884058998509165  9.7970141543393403  0.8124211785337715
  7.8881433738290934  7.3943307734475141  7.3992651293685991
 10.9446566317235217 10.5765692552432320  1.6568048649651113
  8.2893681674660051  7.8642670725584303  6.1728830003283877
 10.5434318321878031 10.1066329512649098  2.8831869975973139
 17.1900137082454236  6.1450354880542051 12.3989858120885135
 18.0050516391241224  6.9260641565123429 11.6160453916225279
 18.4274649579895815  6.4822027603784838 10.3269527711753284
  2.4196500363092652  7.2617556682388873  9.5008854803766631
  9.5852058359616876 11.1690355218766975  9.8684909838783934
  8.7414561798083437 10.3894805062134363 10.7128743147268430
  8.3402312504952025 10.8594164763955092 11.9392563629930493
 13.2555941748227362  6.8018644844231471 17.2997189922815977
 20.4211499725327243 10.7091443343751607 17.6673245014409943
  4.4133350515020968 11.4886972429610168 16.8412572081211387
 14.0993438314445694  7.5814194994792814 16.4553356713765950
  4.8357483718802108 11.0448358459584774 15.5521645895677434
 14.5005687622696247  7.1114835236765508 15.2289536189738932
  5.6507863032379024 11.8258645119457952 14.7692241729573794
 18.2723859792831327  9.1401861753015723 14.7692239272678130
  4.5684140226877314  8.8307138476727491 12.3989860647400008
 17.4573483874505442  9.9212148345260829 15.5521647333461370
  5.3834516185477765  8.0496851989779739 11.6160452632505393
 17.0349349845299329  9.4773533224910018 16.8412575724098232
  5.8058650282652300  8.4935467155794946 10.3269524230395415
 16.2139500773541023 10.2569058709064329 17.6673250999571323
  6.6268499302706552  7.7139941650482680  9.5008849000428661
 17.4627941134488296  8.1738858811458392 17.2997188211716448
  5.3780058998509173  9.7970141543393403  9.8684911785337714
 18.3065433738290935  7.3943307734475141 16.4553351293685992
  4.5342566317235224 10.5765692552432320 10.7128748649651140
 18.7077681674660070  7.8642670725584303 15.2289530003283904
  4.1330318321878021 10.1066329512649098 11.9392569975973135
  8.7756137082454231  0.1547354880542050 12.3989858120885135
  9.5906516391241237  0.9357641565123425 11.6160453916225279
 10.0130649579895810  0.4919027603784831 10.3269527711753284
 10.8340500363092662  1.2714556682388869  9.5008854803766631
 17.9996058359616882  5.1787355218766979  9.8684909838783934
 17.1558561798083460  4.3991805062134359 10.7128743147268430
 16.7546312504952049  4.8691164763955097 11.9392563629930493
  4.8411941748227374  0.8115644844231467 17.2997189922815977
 12.0067499725327256  4.7188443343751594 17.6673245014409943
 12.8277350515021009  5.4983972429610173 16.8412572081211387
  5.6849438314445697  1.5911194994792806 16.4553356713765950
 13.2501483718802131  5.0545358459584770 15.5521645895677434
  6.0861687622696232  1.1211835236765506 15.2289536189738932
 14.0651863032379048  5.8355645119457957 14.7692241729573794
  9.8579859792831339  3.1498861753015723 14.7692239272678130
 12.9828140226877320  2.8404138476727487 12.3989860647400008
  9.0429483874505436  3.9309148345260816 15.5521647333461370
 13.7978516185477762  2.0593851989779739 11.6160452632505393
  8.6205349845299324  3.4870533224910010 16.8412575724098232
 14.2202650282652314  2.5032467155794946 10.3269524230395415
  7.7995500773541018  4.2666058709064325 17.6673250999571323
 15.0412499302706557  1.7236941650482676  9.5008849000428661
  9.0483941134488290  2.1835858811458393 17.2997188211716448
 13.7924058998509178  3.8067141543393399  9.8684911785337714
  9.8921433738290947  1.4040307734475135 16.4553351293685992
 12.9486566317235230  4.5862692552432325 10.7128748649651140
 10.2933681674660065  1.8739670725584296 15.2289530003283904
 12.5474318321878027  4.1163329512649085 11.9392569975973135
  8.7756137082454231  6.1450354880542051 12.3989858120885135
  9.5906516391241237  6.9260641565123429 11.6160453916225279
 10.0130649579895810  6.4822027603784838 10.3269527711753284
 10.8340500363092662  7.2617556682388873  9.5008854803766631
 17.9996058359616882 11.1690355218766975  9.8684909838783934
 17.1558561798083460 10.3894805062134363 10.7128743147268430
 16.7546312504952049 10.8594164763955092 11.9392563629930493
  4.8411941748227374  6.8018644844231471 17.2997189922815977
 12.0067499725327256 10.7091443343751607 17.6673245014409943
 12.8277350515021009 11.4886972429610168 16.8412572081211387
  5.6849438314445697  7.5814194994792814 16.4553356713765950
 13.2501483718802131 11.0448358459584774 15.5521645895677434
  6.0861687622696232  7.1114835236765508 15.2289536189738932
 14.0651863032379048 11.8258645119457952 14.7692241729573794
  9.8579859792831339  9.1401861753015723 14.7692239272678130
 12.9828140226877320  8.8307138476727491 12.3989860647400008
  9.0429483874505436  9.9212148345260829 15.5521647333461370
 13.7978516185477762  8.0496851989779739 11.6160452632505393
  8.6205349845299324  9.4773533224910018 16.8412575724098232
 14.2202650282652314  8.4935467155794946 10.3269524230395415
  7.7995500773541018 10.2569058709064329 17.6673250999571323
 15.0412499302706557  7.7139941650482680  9.5008849000428661
  9.0483941134488290  8.1738858811458392 17.2997188211716448
 13.7924058998509178  9.7970141543393403  9.8684911785337714
  9.8921433738290947  7.3943307734475141 16.4553351293685992
 12.9486566317235230 10.5765692552432320 10.7128748649651140
 10.2933681674660065  7.8642670725584303 15.2289530003283904
 12.5474318321878027 10.1066329512649098 11.9392569975973135
 14.8735483078356356  0.5140864096308659  4.3235448782064356
 16.3344290122516753  1.9145932993189969  2.9057273498138483
  0.7456818700042823  2.2528106078578989  0.7915565143894320
  6.4143781196611895  3.4194384901837238  1.3078247040949760
  5.6850906113170101  4.2580290861440329  3.5103606530369662
 18.0871181369021343  3.7374893984831039  8.2645134634816788
 12.4184218910634847  2.5708615114034736  7.7482452766631384
  2.4983709987926126  4.0757067039408676  6.1503426314062146
 13.1477094059873458  1.7322709133309877  5.5457093298394584
  3.9592517102846467  5.4762135902208424  4.7325251061551885
 16.5808511079853922  3.5092373200750315  4.7325249131541138
  2.2519488920206108  2.4810627018476263  4.3235450791517582
 15.1199707595016353  4.9097440222572128  6.1503431381760514
  3.7128292541308086  1.0805560057896735  2.9057268566319623
 13.8799179951934128  5.2479608686818509  8.2645142722006515
  4.9528820127725650  0.7423391657421754  0.7915557250489533
 16.6256215125779825  0.4242887394293858  7.7482448182752890
  2.2071784899372529  5.5660112925806438  1.3078251843136584
 17.3549087693478015  1.2628795492169582  5.5457087056855068
  1.4778912267480095  4.7274204715800208  3.5103612893786087
 14.8735483078356356  6.5043864096308663  4.3235448782064356
 16.3344290122516753  7.9048932993189975  2.9057273498138483
  0.7456818700042823  8.2431106078578988  0.7915565143894320
  6.4143781196611895  9.4097384901837238  1.3078247040949760
  5.6850906113170101 10.2483290861440324  3.5103606530369662
 18.0871181369021343  9.7277893984831039  8.2645134634816788
 12.4184218910634847  8.5611615114034745  7.7482452766631384
  2.4983709987926126 10.0660067039408681  6.1503426314062146
 13.1477094059873458  7.7225709133309879  5.5457093298394584
  3.9592517102846467 11.4665135902208419  4.7325251061551885
 16.5808511079853922  9.4995373200750315  4.7325249131541138
  2.2519488920206108  8.4713627018476263  4.3235450791517582
 15.1199707595016353 10.9000440222572124  6.1503431381760514
  3.7128292541308086  7.0708560057896737  2.9057268566319623
 13.8799179951934128 11.2382608686818521  8.2645142722006515
  4.9528820127725650  6.7326391657421762  0.7915557250489533
 16.6256215125779825  6.4145887394293863  7.7482448182752890
  2.2071784899372529 11.5563112925806450  1.3078251843136584
 17.3549087693478015  7.2531795492169584  5.5457087056855068
  1.4778912267480095 10.7177204715800212  3.5103612893786087
  6.4591483078356351  0.5140864096308659  4.3235448782064356
  7.9200290122516739  1.9145932993189969  2.9057273498138483
  9.1600818700042836  2.2528106078578989  0.7915565143894320
 14.8287781196611892  3.4194384901837238  1.3078247040949760
 14.0994906113170106  4.2580290861440329  3.5103606530369662
  9.6727181369021320  3.7374893984831039  8.2645134634816788
  4.0040218910634833  2.5708615114034736  7.7482452766631384
 10.9127709987926131  4.0757067039408676  6.1503426314062146
  4.7333094059873426  1.7322709133309877  5.5457093298394584
 12.3736517102846477  5.4762135902208424  4.7325251061551885
  8.1664511079853916  3.5092373200750315  4.7325249131541138
 10.6663488920206113  2.4810627018476263  4.3235450791517582
  6.7055707595016347  4.9097440222572128  6.1503431381760514
 12.1272292541308104  1.0805560057896735  2.9057268566319623
  5.4655179951934114  5.2479608686818509  8.2645142722006515
 13.3672820127725664  0.7423391657421754  0.7915557250489533
  8.2112215125779837  0.4242887394293858  7.7482448182752890
 10.6215784899372530  5.5660112925806438  1.3078251843136584
  8.9405087693477974  1.2628795492169582  5.5457087056855068
  9.8922912267480108  4.7274204715800208  3.5103612893786087
 16.8775483078356352  0.5140864096308659 13.3796148782064357
 18.3384290122516767  1.9145932993189969 11.9617973498138479
  2.7496818700042827  2.2528106078578989  9.8476265143894324
  8.4183781196611900  3.4194384901837238 10.3638947040949763
  7.6890906113170105  4.2580290861440329 12.5664306530369672
 20.0911181369021357  3.7374893984831039 17.3205834634816789
 14.4224218910634860  2.5708615114034736 16.8043152766631394
  4.5023709987926130  4.0757067039408676 15.2064126314062147
 15.1517094059873472  1.7322709133309877 14.6017793298394611
  5.9632517102846467  5.4762135902208424 13.7885951061551886
 18.5848511079853935  3.5092373200750315 13.7885949131541139
  4.2559488920206121  2.4810627018476263 13.3796150791517601
 17.1239707595016348  4.9097440222572128 15.2064131381760514
  5.7168292541308094  1.0805560057896735 11.9617968566319650
 15.8839179951934124  5.2479608686818509 17.3205842722006516
  6.9568820127725655  0.7423391657421754  9.8476257250489532
 18.6296215125779838  0.4242887394293858 16.8043148182752873
  4.2111784899372537  5.5660112925806438 10.3638951843136589
 19.3589087693478028  1.2628795492169582 14.6017787056855095
  3.4818912267480098  4.7274204715800208 12.5664312893786114
  6.4591483078356351  6.5043864096308663  4.3235448782064356
  7.9200290122516739  7.9048932993189975  2.9057273498138483
  9.1600818700042836  8.2431106078578988  0.7915565143894320
 14.8287781196611892  9.4097384901837238  1.3078247040949760
 14.0994906113170106 10.2483290861440324  3.5103606530369662
  9.6727181369021320  9.7277893984831039  8.2645134634816788
  4.0040218910634833  8.5611615114034745  7.7482452766631384
 10.9127709987926131 10.0660067039408681  6.1503426314062146
  4.7333094059873426  7.7225709133309879  5.5457093298394584
 12.3736517102846477 11.4665135902208419  4.7325251061551885
  8.1664511079853916  9.4995373200750315  4.7325249131541138
 10.6663488920206113  8.4713627018476263  4.3235450791517582
  6.7055707595016347 10.9000440222572124  6.1503431381760514
 12.1272292541308104  7.0708560057896737  2.9057268566319623
  5.4655179951934114 11.2382608686818521  8.2645142722006515
 13.3672820127725664  6.7326391657421762  0.7915557250489533
  8.2112215125779837  6.4145887394293863  7.7482448182752890
 10.6215784899372530 11.5563112925806450  1.3078251843136584
  8.9405087693477974  7.2531795492169584  5.5457087056855068
  9.8922912267480108 10.7177204715800212  3.5103612893786087
 16.8775483078356352  6.5043864096308663 13.3796148782064357
 18.3384290122516767  7.9048932993189975 11.9617973498138479
  2.7496818700042827  8.2431106078578988  9.8476265143894324
  8.4183781196611900  9.4097384901837238 10.3638947040949763
  7.6890906113170105 10.2483290861440324 12.5664306530369672
 20.0911181369021357  9.7277893984831039 17.3205834634816789
 14.4224218910634860  8.5611615114034745 16.8043152766631394
  4.5023709987926130 10.0660067039408681 15.2064126314062147
 15.1517094059873472  7.7225709133309879 14.6017793298394611
  5.9632517102846467 11.4665135902208419 13.7885951061551886
 18.5848511079853935  9.4995373200750315 13.7885949131541139
  4.2559488920206121  8.4713627018476263 13.3796150791517601
 17.1239707595016348 10.9000440222572124 15.2064131381760514
  5.7168292541308094  7.0708560057896737 11.9617968566319650
 15.8839179951934124 11.2382608686818521 17.3205842722006516
  6.9568820127725655  6.7326391657421762  9.8476257250489532
 18.6296215125779838  6.4145887394293863 16.8043148182752873
  4.2111784899372537 11.5563112925806450 10.3638951843136589
 19.3589087693478028  7.2531795492169584 14.6017787056855095
  3.4818912267480098 10.7177204715800212 12.5664312893786114
  8.4631483078356364  0.5140864096308659 13.3796148782064357
  9.9240290122516743  1.9145932993189969 11.9617973498138479
 11.1640818700042850  2.2528106078578989  9.8476265143894324
 16.8327781196611923  3.4194384901837238 10.3638947040949763
 16.1034906113170138  4.2580290861440329 12.5664306530369672
 11.6767181369021333  3.7374893984831039 17.3205834634816789
  6.0080218910634855  2.5708615114034736 16.8043152766631394
 12.9167709987926145  4.0757067039408676 15.2064126314062147
  6.7373094059873448  1.7322709133309877 14.6017793298394611
 14.3776517102846491  5.4762135902208424 13.7885951061551886
 10.1704511079853930  3.5092373200750315 13.7885949131541139
 12.6703488920206127  2.4810627018476263 13.3796150791517601
  8.7095707595016361  4.9097440222572128 15.2064131381760514
 14.1312292541308100  1.0805560057896735 11.9617968566319650
  7.4695179951934136  5.2479608686818509 17.3205842722006516
 15.3712820127725678  0.7423391657421754  9.8476257250489532
 10.2152215125779851  0.4242887394293858 16.8043148182752873
 12.6255784899372543  5.5660112925806438 10.3638951843136589
 10.9445087693477987  1.2628795492169582 14.6017787056855095
 11.8962912267480139  4.7274204715800208 12.5664312893786114
  8.4631483078356364  6.5043864096308663 13.3796148782064357
  9.9240290122516743  7.9048932993189975 11.9617973498138479
 11.1640818700042850  8.2431106078578988  9.8476265143894324
 16.8327781196611923  9.4097384901837238 10.3638947040949763
 16.1034906113170138 10.2483290861440324 12.5664306530369672
 11.6767181369021333  9.7277893984831039 17.3205834634816789
  6.0080218910634855  8.5611615114034745 16.8043152766631394
 12.9167709987926145 10.0660067039408681 15.2064126314062147
  6.7373094059873448  7.7225709133309879 14.6017793298394611
 14.3776517102846491 11.4665135902208419 13.7885951061551886
 10.1704511079853930  9.4995373200750315 13.7885949131541139
 12.6703488920206127  8.4713627018476263 13.3796150791517601
  8.7095707595016361 10.9000440222572124 15.2064131381760514
 14.1312292541308100  7.0708560057896737 11.9617968566319650
  7.4695179951934136 11.2382608686818521 17.3205842722006516
 15.3712820127725678  6.7326391657421762  9.8476257250489532
 10.2152215125779851  6.4145887394293863 16.8043148182752873
 12.6255784899372543 11.5563112925806450 10.3638951843136589
 10.9445087693477987  7.2531795492169584 14.6017787056855095
 11.8962912267480139 10.7177204715800212 12.5664312893786114
