 C  H 
        1.0000000000
  16.850661057023125   0.000000000000000   0.430452635077948
   0.000000000000000  12.119020799881822   0.000000000000000
 -12.387397279883713   0.000000000000000  18.410363317011338
  224  160
 Direct
   0.046991312800167   0.015203620226685   0.184743144250707
   0.546991312800167   0.015203620226685   0.184743144250707
   0.046991312800167   0.515203620226685   0.184743144250707
   0.546991312800167   0.515203620226685   0.184743144250707
   0.046991312800167   0.015203620226685   0.684743144250707
   0.546991312800167   0.015203620226685   0.684743144250707
   0.046991312800167   0.515203620226685   0.684743144250707
   0.546991312800167   0.515203620226685   0.684743144250707
   0.060478723711698   0.079036368899414   0.139717032756009
   0.560478723711698   0.079036368899414   0.139717032756009
   0.060478723711698   0.579036368899414   0.139717032756009
   0.560478723711698   0.579036368899414   0.139717032756009
   0.060478723711698   0.079036368899414   0.639717032756009
   0.560478723711698   0.079036368899414   0.639717032756009
   0.060478723711698   0.579036368899414   0.639717032756009
   0.560478723711698   0.579036368899414   0.639717032756009
   0.030237067219094   0.041639922432096   0.069274814767710
   0.530237067219094   0.041639922432096   0.069274814767710
   0.030237067219094   0.541639922432096   0.069274814767710
   0.530237067219094   0.541639922432096   0.069274814767710
   0.030237067219094   0.041639922432096   0.569274814767710
   0.530237067219094   0.041639922432096   0.569274814767710
   0.030237067219094   0.541639922432096   0.569274814767710
   0.530237067219094   0.541639922432096   0.569274814767710
   0.042906476450437   0.104759226596864   0.021977369161237
   0.542906476450437   0.104759226596864   0.021977369161237
   0.042906476450437   0.604759226596864   0.021977369161237
   0.542906476450437   0.604759226596864   0.021977369161237
   0.042906476450437   0.104759226596864   0.521977369161237
   0.542906476450437   0.104759226596864   0.521977369161237
   0.042906476450437   0.604759226596864   0.521977369161237
   0.542906476450437   0.604759226596864   0.521977369161237
   0.485980715871280   0.433950509928310   0.046567095854259
   0.985980715871280   0.433950509928310   0.046567095854259
   0.485980715871280   0.933950509928310   0.046567095854259
   0.985980715871280   0.933950509928310   0.046567095854259
   0.485980715871280   0.433950509928310   0.546567095854259
   0.985980715871280   0.433950509928310   0.546567095854259
   0.485980715871280   0.933950509928310   0.546567095854259
   0.985980715871280   0.933950509928310   0.546567095854259
   0.473364692876860   0.370402846297948   0.095172069634906
   0.973364692876860   0.370402846297948   0.095172069634906
   0.473364692876860   0.870402846297948   0.095172069634906
   0.973364692876860   0.870402846297948   0.095172069634906
   0.473364692876860   0.370402846297948   0.595172069634906
   0.973364692876860   0.370402846297948   0.595172069634906
   0.473364692876860   0.870402846297948   0.595172069634906
   0.973364692876860   0.870402846297948   0.595172069634906
   0.502501267570020   0.409827616735176   0.162062687586130
   1.002501267570020   0.409827616735176   0.162062687586130
   0.502501267570020   0.909827616735176   0.162062687586130
   1.002501267570020   0.909827616735176   0.162062687586130
   0.502501267570020   0.409827616735176   0.662062687586130
   1.002501267570020   0.409827616735176   0.662062687586130
   0.502501267570020   0.909827616735176   0.662062687586130
   1.002501267570020   0.909827616735176   0.662062687586130
   0.014019240639838   0.066049490071688   0.453432892626428
   0.514019240639838   0.066049490071688   0.453432892626428
   0.014019240639838   0.566049490071688   0.453432892626428
   0.514019240639838   0.566049490071688   0.453432892626428
   0.014019240639838   0.066049490071688   0.953432892626428
   0.514019240639838   0.066049490071688   0.953432892626428
   0.014019240639838   0.566049490071688   0.953432892626428
   0.514019240639838   0.566049490071688   0.953432892626428
   0.457093480060679   0.395240773403133   0.478022619319450
   0.957093480060679   0.395240773403133   0.478022619319450
   0.457093480060679   0.895240773403133   0.478022619319450
   0.957093480060679   0.895240773403133   0.478022619319450
   0.457093480060679   0.395240773403133   0.978022619319450
   0.957093480060679   0.395240773403133   0.978022619319450
   0.457093480060679   0.895240773403133   0.978022619319450
   0.957093480060679   0.895240773403133   0.978022619319450
   0.469762889292023   0.458360077567902   0.430725173712977
   0.969762889292022   0.458360077567902   0.430725173712977
   0.469762889292023   0.958360077567902   0.430725173712977
   0.969762889292022   0.958360077567902   0.430725173712977
   0.469762889292023   0.458360077567902   0.930725173712977
   0.969762889292022   0.458360077567902   0.930725173712977
   0.469762889292023   0.958360077567902   0.930725173712977
   0.969762889292022   0.958360077567902   0.930725173712977
   0.026635263634257   0.129597153702049   0.404827918845781
   0.526635263634257   0.129597153702049   0.404827918845781
   0.026635263634257   0.629597153702049   0.404827918845781
   0.526635263634257   0.629597153702049   0.404827918845781
   0.026635263634257   0.129597153702049   0.904827918845781
   0.526635263634257   0.129597153702049   0.904827918845781
   0.026635263634257   0.629597153702049   0.904827918845781
   0.526635263634257   0.629597153702049   0.904827918845781
   0.439521232799418   0.420963631100584   0.360282955724677
   0.939521232799418   0.420963631100584   0.360282955724677
   0.439521232799418   0.920963631100584   0.360282955724677
   0.939521232799418   0.920963631100584   0.360282955724677
   0.439521232799418   0.420963631100584   0.860282955724677
   0.939521232799418   0.420963631100584   0.860282955724677
   0.439521232799418   0.920963631100584   0.860282955724677
   0.939521232799418   0.920963631100584   0.860282955724677
  -0.002501311058902   0.090172383264821   0.337937300894557
   0.497498688941098   0.090172383264821   0.337937300894557
  -0.002501311058902   0.590172383264821   0.337937300894557
   0.497498688941098   0.590172383264821   0.337937300894557
  -0.002501311058902   0.090172383264821   0.837937300894557
   0.497498688941098   0.090172383264821   0.837937300894557
  -0.002501311058902   0.590172383264821   0.837937300894557
   0.497498688941098   0.590172383264821   0.837937300894557
   0.453008643710950   0.484796379773313   0.315256844229980
   0.953008643710950   0.484796379773313   0.315256844229980
   0.453008643710950   0.984796379773313   0.315256844229980
   0.953008643710950   0.984796379773313   0.315256844229980
   0.453008643710950   0.484796379773313   0.815256844229980
   0.953008643710950   0.484796379773313   0.815256844229980
   0.453008643710950   0.984796379773313   0.815256844229980
   0.953008643710950   0.984796379773313   0.815256844229980
   0.203008643710949   0.265203620226684   0.315256844229979
   0.703008643710949   0.265203620226684   0.315256844229979
   0.203008643710949   0.765203620226684   0.315256844229979
   0.703008643710949   0.765203620226684   0.315256844229979
   0.203008643710949   0.265203620226684   0.815256844229979
   0.703008643710949   0.265203620226684   0.815256844229979
   0.203008643710949   0.765203620226684   0.815256844229979
   0.703008643710949   0.765203620226684   0.815256844229979
   0.296991312800167   0.234796379773315   0.184743144250707
   0.796991312800168   0.234796379773315   0.184743144250707
   0.296991312800167   0.734796379773315   0.184743144250707
   0.796991312800168   0.734796379773315   0.184743144250707
   0.296991312800167   0.234796379773315   0.684743144250707
   0.796991312800168   0.234796379773315   0.684743144250707
   0.296991312800167   0.734796379773315   0.684743144250707
   0.796991312800168   0.734796379773315   0.684743144250707
   0.189521232799417   0.329036368899412   0.360282955724677
   0.689521232799417   0.329036368899412   0.360282955724677
   0.189521232799417   0.829036368899412   0.360282955724677
   0.689521232799417   0.829036368899412   0.360282955724677
   0.189521232799417   0.329036368899412   0.860282955724677
   0.689521232799417   0.329036368899412   0.860282955724677
   0.189521232799417   0.829036368899412   0.860282955724677
   0.689521232799417   0.829036368899412   0.860282955724677
   0.310478723711698   0.170963631100586   0.139717032756009
   0.810478723711698   0.170963631100586   0.139717032756009
   0.310478723711698   0.670963631100586   0.139717032756009
   0.810478723711698   0.670963631100586   0.139717032756009
   0.310478723711698   0.170963631100586   0.639717032756009
   0.810478723711698   0.170963631100586   0.639717032756009
   0.310478723711698   0.670963631100586   0.639717032756009
   0.810478723711698   0.670963631100586   0.639717032756009
   0.219762889292021   0.291639922432095   0.430725173712976
   0.719762889292021   0.291639922432095   0.430725173712976
   0.219762889292021   0.791639922432095   0.430725173712976
   0.719762889292021   0.791639922432095   0.430725173712976
   0.219762889292021   0.291639922432095   0.930725173712976
   0.719762889292021   0.291639922432095   0.930725173712976
   0.219762889292021   0.791639922432095   0.930725173712976
   0.719762889292021   0.791639922432095   0.930725173712976
   0.280237067219095   0.208360077567903   0.069274814767710
   0.780237067219095   0.208360077567903   0.069274814767710
   0.280237067219095   0.708360077567903   0.069274814767710
   0.780237067219095   0.708360077567903   0.069274814767710
   0.280237067219095   0.208360077567903   0.569274814767710
   0.780237067219095   0.208360077567903   0.569274814767710
   0.280237067219095   0.708360077567903   0.569274814767710
   0.780237067219095   0.708360077567903   0.569274814767710
   0.207093480060679   0.354759226596862   0.478022619319450
   0.707093480060679   0.354759226596862   0.478022619319450
   0.207093480060679   0.854759226596862   0.478022619319450
   0.707093480060679   0.854759226596862   0.478022619319450
   0.207093480060679   0.354759226596862   0.978022619319450
   0.707093480060679   0.354759226596862   0.978022619319450
   0.207093480060679   0.854759226596862   0.978022619319450
   0.707093480060679   0.854759226596862   0.978022619319450
   0.292906476450438   0.145240773403135   0.021977369161237
   0.792906476450439   0.145240773403135   0.021977369161237
   0.292906476450438   0.645240773403135   0.021977369161237
   0.792906476450439   0.645240773403135   0.021977369161237
   0.292906476450438   0.145240773403135   0.521977369161237
   0.792906476450439   0.145240773403135   0.521977369161237
   0.292906476450438   0.645240773403135   0.521977369161237
   0.792906476450439   0.645240773403135   0.521977369161237
   0.264019240639837   0.183950509928312   0.453432892626426
   0.764019240639837   0.183950509928312   0.453432892626426
   0.264019240639837   0.683950509928312   0.453432892626426
   0.764019240639837   0.683950509928312   0.453432892626426
   0.264019240639837   0.183950509928312   0.953432892626426
   0.764019240639837   0.183950509928312   0.953432892626426
   0.264019240639837   0.683950509928312   0.953432892626426
   0.764019240639837   0.683950509928312   0.953432892626426
   0.235980715871279   0.316049490071686   0.046567095854259
   0.735980715871279   0.316049490071686   0.046567095854259
   0.235980715871279   0.816049490071686   0.046567095854259
   0.735980715871279   0.816049490071686   0.046567095854259
   0.235980715871279   0.316049490071686   0.546567095854259
   0.735980715871279   0.316049490071686   0.546567095854259
   0.235980715871279   0.816049490071686   0.546567095854259
   0.735980715871279   0.816049490071686   0.546567095854259
   0.276635263634258   0.120402846297950   0.404827918845781
   0.776635263634258   0.120402846297950   0.404827918845781
   0.276635263634258   0.620402846297950   0.404827918845781
   0.776635263634258   0.620402846297950   0.404827918845781
   0.276635263634258   0.120402846297950   0.904827918845781
   0.776635263634258   0.120402846297950   0.904827918845781
   0.276635263634258   0.620402846297950   0.904827918845781
   0.776635263634258   0.620402846297950   0.904827918845781
   0.223364692876859   0.379597153702047   0.095172069634906
   0.723364692876859   0.379597153702047   0.095172069634906
   0.223364692876859   0.879597153702047   0.095172069634906
   0.723364692876859   0.879597153702047   0.095172069634906
   0.223364692876859   0.379597153702047   0.595172069634906
   0.723364692876859   0.379597153702047   0.595172069634906
   0.223364692876859   0.879597153702047   0.595172069634906
   0.723364692876859   0.879597153702047   0.595172069634906
   0.247498688941098   0.159827616735179   0.337937300894557
   0.747498688941098   0.159827616735179   0.337937300894557
   0.247498688941098   0.659827616735179   0.337937300894557
   0.747498688941098   0.659827616735179   0.337937300894557
   0.247498688941098   0.159827616735179   0.837937300894557
   0.747498688941098   0.159827616735179   0.837937300894557
   0.247498688941098   0.659827616735179   0.837937300894557
   0.747498688941098   0.659827616735179   0.837937300894557
   0.252501267570018   0.340172383264819   0.162062687586130
   0.752501267570018   0.340172383264819   0.162062687586130
   0.252501267570018   0.840172383264819   0.162062687586130
   0.752501267570018   0.840172383264819   0.162062687586130
   0.252501267570018   0.340172383264819   0.662062687586130
   0.752501267570018   0.340172383264819   0.662062687586130
   0.252501267570018   0.840172383264819   0.662062687586130
   0.752501267570018   0.840172383264819   0.662062687586130
   0.070492987799707   0.044719024099249   0.237920189521956
   0.570492987799707   0.044719024099249   0.237920189521956
   0.070492987799707   0.544719024099249   0.237920189521956
   0.570492987799707   0.544719024099249   0.237920189521956
   0.070492987799707   0.044719024099249   0.737920189521956
   0.570492987799707   0.044719024099249   0.737920189521956
   0.070492987799707   0.544719024099249   0.737920189521956
   0.570492987799707   0.544719024099249   0.737920189521956
   0.094083882746272   0.159185296322043   0.156733689637507
   0.594083882746272   0.159185296322043   0.156733689637507
   0.094083882746272   0.659185296322043   0.156733689637507
   0.594083882746272   0.659185296322043   0.156733689637507
   0.094083882746272   0.159185296322043   0.656733689637507
   0.594083882746272   0.159185296322043   0.656733689637507
   0.094083882746272   0.659185296322043   0.656733689637507
   0.594083882746272   0.659185296322043   0.656733689637507
   0.076320397920417   0.185101333824032   0.038912853643491
   0.576320397920417   0.185101333824032   0.038912853643491
   0.076320397920417   0.685101333824032   0.038912853643491
   0.576320397920417   0.685101333824032   0.038912853643491
   0.076320397920417   0.185101333824032   0.538912853643491
   0.576320397920417   0.185101333824032   0.538912853643491
   0.076320397920417   0.685101333824032   0.538912853643491
   0.576320397920417   0.685101333824032   0.538912853643491
   0.440357241919965   0.290123804115626   0.078194892036252
   0.940357241919965   0.290123804115626   0.078194892036252
   0.440357241919965   0.790123804115626   0.078194892036252
   0.940357241919965   0.790123804115626   0.078194892036252
   0.440357241919965   0.290123804115626   0.578194892036252
   0.940357241919965   0.290123804115626   0.578194892036252
   0.440357241919965   0.790123804115626   0.578194892036252
   0.940357241919965   0.790123804115626   0.578194892036252
   0.492143210254709   0.360481971522675   0.198094049636299
   0.992143210254709   0.360481971522675   0.198094049636299
   0.492143210254709   0.860481971522675   0.198094049636299
   0.992143210254709   0.860481971522675   0.198094049636299
   0.492143210254709   0.360481971522675   0.698094049636299
   0.992143210254709   0.360481971522675   0.698094049636299
   0.492143210254709   0.860481971522675   0.698094049636299
   0.992143210254709   0.860481971522675   0.698094049636299
   0.423679558590699   0.314898666175966   0.461087134837194
   0.923679558590699   0.314898666175966   0.461087134837194
   0.423679558590699   0.814898666175967   0.461087134837194
   0.923679558590699   0.814898666175967   0.461087134837194
   0.423679558590699   0.314898666175966   0.961087134837194
   0.923679558590699   0.314898666175966   0.961087134837194
   0.423679558590699   0.814898666175967   0.961087134837194
   0.923679558590699   0.814898666175967   0.961087134837194
   0.059642714591153   0.209876195884372   0.421805096444434
   0.559642714591153   0.209876195884372   0.421805096444434
   0.059642714591153   0.709876195884372   0.421805096444434
   0.559642714591153   0.709876195884372   0.421805096444434
   0.059642714591153   0.209876195884372   0.921805096444434
   0.559642714591153   0.209876195884372   0.921805096444434
   0.059642714591153   0.709876195884372   0.921805096444434
   0.559642714591153   0.709876195884372   0.921805096444434
   0.405916073764844   0.340814703677954   0.343266298843179
   0.905916073764844   0.340814703677954   0.343266298843179
   0.405916073764844   0.840814703677954   0.343266298843179
   0.905916073764844   0.840814703677954   0.343266298843179
   0.405916073764844   0.340814703677954   0.843266298843179
   0.905916073764844   0.340814703677954   0.843266298843179
   0.405916073764844   0.840814703677954   0.843266298843179
   0.905916073764844   0.840814703677954   0.843266298843179
   0.007856746256407   0.139518028477323   0.301905938844387
   0.507856746256407   0.139518028477323   0.301905938844387
   0.007856746256407   0.639518028477323   0.301905938844387
   0.507856746256407   0.639518028477323   0.301905938844387
   0.007856746256407   0.139518028477323   0.801905938844387
   0.507856746256407   0.139518028477323   0.801905938844387
   0.007856746256407   0.639518028477323   0.801905938844387
   0.507856746256407   0.639518028477323   0.801905938844387
   0.429506968711408   0.455280975900749   0.262079798958730
   0.929506968711408   0.455280975900749   0.262079798958730
   0.429506968711408   0.955280975900749   0.262079798958730
   0.929506968711408   0.955280975900749   0.262079798958730
   0.429506968711408   0.455280975900749   0.762079798958730
   0.929506968711408   0.455280975900749   0.762079798958730
   0.429506968711408   0.955280975900749   0.762079798958730
   0.929506968711408   0.955280975900749   0.762079798958730
   0.179506968711409   0.294719024099249   0.262079798958730
   0.679506968711409   0.294719024099249   0.262079798958730
   0.179506968711409   0.794719024099249   0.262079798958730
   0.679506968711409   0.794719024099249   0.262079798958730
   0.179506968711409   0.294719024099249   0.762079798958730
   0.679506968711409   0.294719024099249   0.762079798958730
   0.179506968711409   0.794719024099249   0.762079798958730
   0.679506968711409   0.794719024099249   0.762079798958730
   0.320492987799707   0.205280975900749   0.237920189521956
   0.820492987799707   0.205280975900749   0.237920189521956
   0.320492987799707   0.705280975900749   0.237920189521956
   0.820492987799707   0.705280975900749   0.237920189521956
   0.320492987799707   0.205280975900749   0.737920189521956
   0.820492987799707   0.205280975900749   0.737920189521956
   0.320492987799707   0.705280975900749   0.737920189521956
   0.820492987799707   0.705280975900749   0.737920189521956
   0.155916073764843   0.409185296322041   0.343266298843179
   0.655916073764843   0.409185296322041   0.343266298843179
   0.155916073764843   0.909185296322041   0.343266298843179
   0.655916073764843   0.909185296322041   0.343266298843179
   0.155916073764843   0.409185296322041   0.843266298843178
   0.655916073764843   0.409185296322041   0.843266298843178
   0.155916073764843   0.909185296322041   0.843266298843178
   0.655916073764843   0.909185296322041   0.843266298843178
   0.344083882746273   0.090814703677957   0.156733689637507
   0.844083882746273   0.090814703677957   0.156733689637507
   0.344083882746273   0.590814703677957   0.156733689637507
   0.844083882746273   0.590814703677957   0.156733689637507
   0.344083882746273   0.090814703677957   0.656733689637507
   0.844083882746273   0.090814703677957   0.656733689637507
   0.344083882746273   0.590814703677957   0.656733689637507
   0.844083882746273   0.590814703677957   0.656733689637507
   0.173679558590699   0.435101333824030   0.461087134837195
   0.673679558590699   0.435101333824030   0.461087134837195
   0.173679558590699   0.935101333824030   0.461087134837195
   0.673679558590699   0.935101333824030   0.461087134837195
   0.173679558590699   0.435101333824030   0.961087134837195
   0.673679558590699   0.435101333824030   0.961087134837195
   0.173679558590699   0.935101333824030   0.961087134837195
   0.673679558590699   0.935101333824030   0.961087134837195
   0.326320397920418   0.064898666175967   0.038912853643491
   0.826320397920418   0.064898666175967   0.038912853643491
   0.326320397920418   0.564898666175967   0.038912853643491
   0.826320397920418   0.564898666175967   0.038912853643491
   0.326320397920418   0.064898666175967   0.538912853643491
   0.826320397920418   0.064898666175967   0.538912853643491
   0.326320397920418   0.564898666175967   0.538912853643491
   0.826320397920418   0.564898666175967   0.538912853643491
   0.309642714591154   0.040123804115628   0.421805096444434
   0.809642714591154   0.040123804115628   0.421805096444434
   0.309642714591154   0.540123804115628   0.421805096444434
   0.809642714591154   0.540123804115628   0.421805096444434
   0.309642714591154   0.040123804115628   0.921805096444434
   0.809642714591154   0.040123804115628   0.921805096444434
   0.309642714591154   0.540123804115628   0.921805096444434
   0.809642714591154   0.540123804115628   0.921805096444434
   0.190357241919963   0.459876195884370   0.078194892036252
   0.690357241919963   0.459876195884370   0.078194892036252
   0.190357241919963   0.959876195884370   0.078194892036252
   0.690357241919963   0.959876195884370   0.078194892036252
   0.190357241919963   0.459876195884370   0.578194892036253
   0.690357241919963   0.459876195884370   0.578194892036253
   0.190357241919963   0.959876195884370   0.578194892036253
   0.690357241919963   0.959876195884370   0.578194892036253
   0.257856746256407   0.110481971522677   0.301905938844387
   0.757856746256407   0.110481971522677   0.301905938844387
   0.257856746256407   0.610481971522677   0.301905938844387
   0.757856746256407   0.610481971522677   0.301905938844387
   0.257856746256407   0.110481971522677   0.801905938844387
   0.757856746256407   0.110481971522677   0.801905938844387
   0.257856746256407   0.610481971522677   0.801905938844387
   0.757856746256407   0.610481971522677   0.801905938844387
   0.242143210254710   0.389518028477320   0.198094049636300
   0.742143210254710   0.389518028477320   0.198094049636300
   0.242143210254710   0.889518028477320   0.198094049636300
   0.742143210254710   0.889518028477320   0.198094049636300
   0.242143210254710   0.389518028477320   0.698094049636300
   0.742143210254710   0.389518028477320   0.698094049636300
   0.242143210254710   0.889518028477320   0.698094049636300
   0.742143210254710   0.889518028477320   0.698094049636300
