 O  N  C  H 
 1.0000000000000000
     7.1522981131152967    0.0000011067284388   -0.0627984861361373
    -0.0000013770758008    8.4355824480484962    0.0000028288557621
    -1.6706365143810031    0.0000027799919803   12.8372207203855737
 O   N   C   H  
   8   4  32  36
Cartesian
  0.7050473669615692  7.2587412178472626  2.8754839875798677
  2.0357810732553339  3.0409499715843218  3.5117302217672974
  4.7766123623758086  1.1768445102855487  9.8989417147746899
  3.4458789990202292  5.3946364635851198  9.2626944886126523
  1.1326354852661271  4.2819896047858164 10.2814556225348550
 -0.0624430262727651  8.4997788238968415  8.9429833082608514
  4.3490246428621289  4.1535971998692016  2.4929696268034691
  5.5441036189883777 -0.0641923815801246  3.8314415893395690
 -1.0307176161675045  5.0330630522800099 10.6306481559044332
  2.1009112120184175  0.8152703358560152  8.5937873686183686
  6.5123777848642703  3.4025239417993287  2.1437770249926666
  3.3807495963118375  7.6203153931031427  4.1806370425421715
 -0.9708708477782566  5.5542338276866481 11.9032403149160597
  2.0410639300638769  1.3364410219963860  7.3211952148839243
  6.4525309532942101  2.8813531846200191  0.8711848602337744
  3.4405968798722322  7.0991447279884889  5.4532292256585215
  1.8004773854157994  5.3807110386599426 -0.0467565260072161
  0.9403517102992783  1.1629211961641377  6.4339719262409041
  3.6811827586777652  3.0548760288999337 12.8211816519828794
  4.5413087923154736  7.2726650357831941  6.3404528126444468
  1.7810530842719059  5.9398295416809201  1.2115143551705516
  0.9597756177410656  1.7220392415327870  5.1757008309866315
  3.7006068926217632  2.4957571389171935 11.5629109169462705
  4.5218846642033359  6.7135470929963112  7.5987239481866826
  0.6678727718368539  6.7140916301236162  1.6595031886784442
  2.0729559220714391  2.4963009155283493  4.7277113028163749
  4.8137869749739206  1.7214945307024121 11.1149223601006213
  3.4087043767875116  5.9392852422182454  8.0467132983758471
  6.7083242123133804  6.8708665506039344  0.7165536488195529
  3.1848028983323635  2.6530749464542827  5.6078619379491110
 -1.2266645241068972  1.5647195683167439 12.0578719475761069
  2.2968577454971846  5.7825106735499832  7.1665623295390084
  5.0557087297481660  6.3033444922345829 12.3071957590003009
  3.1667823515031208  2.0855504329531218  6.8544407124100637
  0.4259511714826909  2.1322420967041791  0.4672296253788690
  2.3148786028437929  6.3500349551027764  5.9199834554969542
 -0.0498865292249893  4.3816970643096651  9.8967565041609191
  1.1200789444642181  8.5994871055443056  9.3276823525063950
  5.5315466169597807  4.0538895699038768  2.8776688471552676
  4.3615816939728367 -0.1639007651371474  3.4467423798527510
 -0.5458689795984879  3.8247640050993819  8.5772925989411455
  1.6160616239666237  8.0425554162687636 10.6471467105852504
  6.0275288481643265  4.6108219975922724  4.1971330987796476
  3.8655988899711380  0.3930316241019843  2.1272783598112679
 -0.1551928837269077  7.7081075633209792  3.1403215210556952
  2.8960212489137676  3.4903161565413363  3.2468923317957588
  5.6368526162828205  0.7274782507797866  9.6341041614261318
  2.5856387919021344  4.9452702964310129  9.5275323074845435
  2.6580413653323220  4.8108033857442951 -0.3712149328488030
  0.0827877149604770  0.5930139450343674  6.7584310269008885
  2.8236188862681288  3.6247839602802374 13.1456398586129684
  5.3988726992396598  7.8425725969788296  6.0159939870621253
  2.6192053362022354  5.7875891412162117  1.8832483301500338
  0.1216230261930576  1.5697989182040013  4.5039672617960793
  2.8624546811970082  2.6479975647454435 10.8911768906922983
  5.3600370504210888  6.8657877278753778  8.2704577180397809
  5.8524233825565872  7.4447323951343201  1.0420401939110289
  4.0407035804094065  3.2269406854681555  5.2823748891266398
 -0.3707639286007947  0.9908532860018112 11.7323855771597234
  1.4409570969244383  5.2086447164477274  7.4920491838574819
  4.1975092125953344  6.4170317200905380 11.6553439316761054
  4.0249821613435346  2.1992377920377266  7.5062921668113498
  1.2841506129275007  2.0185549099734739  1.1190815445820774
  1.4566791520070725  6.2363470886790511  5.2681316336301043
  5.2131490179639037  5.1433043145254285 10.1064960433764419
  3.0093427888612192  0.9255107664872895  9.0551407420830667
  0.2685111207585610  3.2922825002479681  2.6679291701151766
  2.4723179685948553  7.5100749187694209  3.7192837606081022
 -0.6950541430360710  4.6422494467706352  7.8634865129397724
  1.7652465398593136  8.8600416242665272 11.3609519574259981
  6.1767123231891521  3.7933363727664835  4.9109393344657599
  3.7164119950120811 -0.4244541681553419  1.4134730314905066
  0.1741845655436852  3.1239263925014531  8.1655595449172882
  0.8960083934918175  7.3417179226495746 11.0588803902913977
  5.3074758943566795  5.3116605507691368  4.6088655725757572
  4.5856528962719096  1.0938680742512064  1.7155442645201175
  5.6422437424450065  3.3321372624765053  8.6390734098128412
  2.5802471428300251  7.5499277269198704 10.5225678232142510
 -0.1605831254815741  5.1034474263375422  4.1353531058666091
  2.9014142799740483  0.8856608958580807  2.2518581753300904
