 O  N  C  H 
 1.0000000000000000
     7.1522962709447455   -0.0000092445778290   -0.0627973793030269
    -0.0000135361172578    8.4355818439879187    0.0000084691578917
    -1.6706340787252996    0.0000137714250349   12.8372228590001338
 O   N   C   H  
   8   4  32  36
Cartesian
  0.7050504795078820  7.2587343084391769  2.8754773359622483
  2.0357885303082228  3.0409612849620729  3.5117230215458322
  4.7765977327628919  1.1768323700582213  9.8989542715695293
  3.4458574214648716  5.3946513086261598  9.2627088115516383
  1.1326223097751191  4.2819867232380959 10.2814519618808937
 -0.0624625442553553  8.4997914554977161  8.9429822687713880
  4.3490399627431158  4.1536132894534239  2.4929755301862810
  5.5441236541228331 -0.0642150255881247  3.8314447057974252
 -1.0307328938909031  5.0330503018607917 10.6306519129416710
  2.1009015646264100  0.8152928595573227  8.5937857050295392
  6.5123820758530462  3.4025072511375893  2.1437845853508790
  3.3807478520911571  7.6203199434037519  4.1806460212812029
 -0.9708837937042778  5.5542177553761629 11.9032452675750857
  2.0410555290643324  1.3364670402037022  7.3211949894530530
  6.4525268787461139  2.8813293449397133  0.8711959999378119
  3.4405870947053159  7.0991560601043542  5.4532416982146668
  1.8004697086525863  5.3806946264510476 -0.0467610238812798
  0.9403495501615891  1.1629390896879164  6.4339658570580411
  3.6811843613388238  3.0548756771893002 12.8211932239106083
  4.5413021449694080  7.2726650269667701  6.3404638182148494
  1.7810498360913254  5.9398161788318538  1.2115086023567601
  0.9597773269787101  1.7220547363024430  5.1756937674858428
  3.7006011346596583  2.4957509522315284 11.5629248667668847
  4.5218715946017243  6.7135531821808661  7.5987374923378832
  0.6678670703324963  6.7140717380233275  1.6595029376406969
  2.0729557424263616  2.4963219336837601  4.7277091324376634
  4.8137725900050752  1.7214743077265822 11.1149385767126336
  3.4086834303119957  5.9393049184909454  8.0467298772494615
  6.7083051447836821  6.8708171644237472  0.7165650728015233
  3.1847932144803055  2.6531111237632108  5.6078685600298535
 -1.2266837078122159  1.5646901021063973 12.0578918205570691
  2.2968307559452890  5.7825476000650973  7.1665830232606131
  5.0556880570113671  6.3033037418355500 12.3072106100524046
  3.1667691472838428  2.0855880650090732  6.8544480327260251
  0.4259361103968745  2.1322054108445512  0.4672459407277730
  2.3148571045635578  6.3500677531816221  5.9200024428053810
 -0.0499001990197307  4.3816937555085076  9.8967541268270871
  1.1200593296078922  8.5995000124875851  9.3276811784604039
  5.5315617972003759  4.0538940810960558  2.8776719767713290
  4.3616018592701895 -0.1639136162229417  3.4467423766492842
 -0.5458823577575365  3.8247691504504671  8.5772868483539675
  1.6160433903185811  8.0425599524530860 10.6471418754918332
  6.0275537812330047  4.6108331688970212  4.1971303173457217
  3.8656285229646441  0.3930138936259248  2.1272730055944868
 -0.1551898314818984  7.7080987810929340  3.1403186035286752
  2.8960285376844803  3.4903293620813152  3.2468893303845943
  5.6368379782240412  0.7274691319984324  9.6341124811385477
  2.5856174965204310  4.9452818980652999  9.5275425573273242
  2.6580362709498262  4.8107936930386863 -0.3712245510350201
  0.0827876554140224  0.5930264248238429  6.7584202266280355
  2.8236296818997451  3.6247995817272431 13.1456482093277049
  5.3988745046767903  7.8425579315370824  6.0160016825173770
  2.6192080753799116  5.7875848796234077  1.8832372213915340
  0.1216296775533560  1.5698071378065956  4.5039557410810227
  2.8624508521959018  2.6479990605818395 10.8911901202102754
  5.3600261595400402  6.8657863284679186  8.2704700244286560
  5.8523979273905278  7.4446690398151478  1.0420590085107007
  4.0406887796074082  3.2269878750852090  5.2823876798502578
 -0.3707946408712132  0.9908038613691169 11.7324105035424644
  1.4409198806808616  5.2086997498661720  7.4920748117784060
  4.1974802488014937  6.4169769010771178 11.6553669721708335
  4.0249623209603635  2.1992855564292939  7.5063060733734872
  1.2841301952151352  2.0185018801344587  1.1191022677470099
  1.4566523698768561  6.2363941209250946  5.2681551565377278
  5.2131309982784479  5.1432823539045005 10.1065028174362226
  3.0093322153995392  0.9255330320400592  9.0551406917630075
  0.2685179055066269  3.2922709879665906  2.6679330705947431
  2.4723171550088745  7.5100841482567597  3.7192898186609478
 -0.6950881192794164  4.6422601049905055  7.8634913303665215
  1.7651975500750814  8.8600395570151775 11.3609612902363253
  6.1766712093985383  3.7933569530281797  4.9109613109742476
  3.7163736064305679 -0.4244803112719586  1.4134918117803110
  0.1741793701407641  3.1239482514293191  8.1655402932281760
  0.8960033847420886  7.3416977417567146 11.0588570545166291
  5.3075347512624260  5.3117262041184707  4.6088301601384831
  4.5857173640043083  1.0937949230801789  1.7155067206127999
  5.6422381702725328  3.3321137054784637  8.6390719895992234
  2.5802435956936778  7.5499601539997014 10.5225675286725373
 -0.1605233337736938  5.1034054529102866  4.1353574120988243
  2.9014779858575106  0.8857083806227330  2.2518621084895325
