 H  C  N 
 1.0000000000000000
    -6.9879221608785764    6.9879221608785764    6.9879221608785764
     6.9879221608785764   -6.9879221608785764    6.9879221608785764
     6.9879221608785764    6.9879221608785764   -6.9879221608785764
 H   C   N  
  96  48  32
Cartesian
  2.6564499608390988  0.9542688510991320 -0.3129166494955939
 -0.8375111196002071  4.4482299315383980  3.1810444309437185
  6.1504110412783728 -2.5396922293401749  3.1810444309437091
  2.6564499608391232  0.9542688510991598  6.6750055113829641
  6.1504110412783088  4.4482299315383278 -3.8068777299347909
  2.6564499608390677  7.9421910119776538 -0.3129166494955375
  9.6443721217177707  0.9542688510992415 -0.3129166494957085
  6.1504110412783035  4.4482299315383163  3.1810444309437975
 -0.3129166494956291  2.6564499608391170  0.9542688510991626
 -3.8068777299348553  6.1504110412783763  4.4482299315383962
  3.1810444309436194 -0.8375111196001327  4.4482299315384957
 -0.3129166494956019  2.6564499608391081  7.9421910119777159
  3.1810444309436625  6.1504110412784057 -2.5396922293401243
 -0.3129166494955509  9.6443721217176375  0.9542688510990880
  6.6750055113830182  2.6564499608390757  0.9542688510990952
  3.1810444309436656  6.1504110412784021  4.4482299315384486
  4.9728253319183082  0.9542689173454434  0.9542689173454388
  1.4788642514790562  4.4482299977847015  4.4482299977847006
  8.4667864123576067 -2.5396921630938634  4.4482299977847148
  4.9728253319183473  0.9542689173453965  7.9421910782239760
  8.4667864123575871  4.4482299977847557 -2.5396921630938243
  4.9728253319182558  7.9421910782240852  0.9542689173455124
 11.9607474927969140  0.9542689173454257  0.9542689173454270
  8.4667864123577452  4.4482299977845541  4.4482299977845550
 -0.3129166494956183  0.9542688510991529  2.6564499608391126
 -3.8068777299348677  4.4482299315384042  6.1504110412783790
  3.1810444309436781 -2.5396922293401434  6.1504110412783923
 -0.3129166494956985  0.9542688510992351  9.6443721217177654
  3.1810444309436900  4.4482299315384246 -0.8375111196001876
 -0.3129166494955881  7.9421910119776991  2.6564499608390966
  6.6750055113829703  0.9542688510991437  2.6564499608391143
  3.1810444309437811  4.4482299315383331  6.1504110412783106
  0.9542688510990920  2.6564499608390686 -0.3129166494955516
 -2.5396922293400936  6.1504110412784394  3.1810444309436283
  4.4482299315383553 -0.8375111196002352  3.1810444309437607
  0.9542688510991442  2.6564499608391157  6.6750055113829738
  4.4482299315383758  6.1504110412783524 -3.8068777299348406
  0.9542688510991593  9.6443721217176925 -0.3129166494956229
  7.9421910119777452  2.6564499608391250 -0.3129166494956298
  4.4482299315383758  6.1504110412783470  3.1810444309437407
  0.9542688510991122 -0.3129166494955712  2.6564499608390859
 -2.5396922293401372  3.1810444309436714  6.1504110412783994
  4.4482299315384060 -3.8068777299348677  6.1504110412783790
  0.9542688510990744 -0.3129166494955364  9.6443721217176446
  4.4482299315384104  3.1810444309437105 -0.8375111196002002
  0.9542688510991445  6.6750055113829774  2.6564499608391023
  7.9421910119777239 -0.3129166494956082  2.6564499608391170
  4.4482299315384672  3.1810444309436470  6.1504110412784110
  1.4788655707465479  3.1810447351130722  3.1810447351130757
 -2.0150955096927836  6.6750058155523284  6.6750058155523284
  4.9728266511857884 -0.3129163453262672  6.6750058155523107
  1.4788655707465037  3.1810447351130335 10.1689668959916109
  4.9728266511858310  6.6750058155523888 -0.3129163453261957
  1.4788655707465579 10.1689668959916784  3.1810447351131024
  8.4667877316250326  3.1810447351129438  3.1810447351129429
  4.9728266511858612  6.6750058155523915  6.6750058155523924
  3.1810447351130522  1.4788655707465219  3.1810447351130513
 -0.3129163453263283  4.9728266511857351  6.6750058155522494
  6.6750058155523302 -2.0150955096927756  6.6750058155523320
  3.1810447351130060  1.4788655707464891 10.1689668959915842
  6.6750058155523879  4.9728266511858363 -0.3129163453261896
  3.1810447351129896  8.4667877316250557  3.1810447351129882
 10.1689668959915966  1.4788655707464988  3.1810447351130180
  6.6750058155522662  4.9728266511857662  6.6750058155522636
  0.9542689173454104  4.9728253319183429  0.9542689173454078
 -2.5396921630939100  8.4667864123576511  4.4482299977846695
  4.4482299977846989  1.4788642514790553  4.4482299977847024
  0.9542689173453596  4.9728253319183704  7.9421910782239369
  4.4482299977846784  8.4667864123576404 -2.5396921630938984
  0.9542689173452985 11.9607474927970081  0.9542689173453044
  7.9421910782240870  4.9728253319182558  0.9542689173455084
  4.4482299977846091  8.4667864123577044  4.4482299977846127
  2.6564499608391015 -0.3129166494955979  0.9542688510991369
 -0.8375111196001727  3.1810444309436727  4.4482299315384424
  6.1504110412784030 -3.8068777299348997  4.4482299315384424
  2.6564499608391068 -0.3129166494955979  7.9421910119777088
  6.1504110412784225  3.1810444309436345 -2.5396922293400968
  2.6564499608391867  6.6750055113828806  0.9542688510992349
  9.6443721217176552 -0.3129166494955473  0.9542688510990857
  6.1504110412784252  3.1810444309436265  4.4482299315384894
  0.9542689173454622  0.9542689173454625  4.9728253319182931
 -2.5396921630938727  4.4482299977847060  8.4667864123576191
  4.4482299977846962 -2.5396921630938825  8.4667864123576262
  0.9542689173452907  0.9542689173452944 11.9607474927970134
  4.4482299977846580  4.4482299977846598  1.4788642514790833
  0.9542689173454940  7.9421910782240737  4.9728253319182736
  7.9421910782239804  0.9542689173454039  4.9728253319183473
  4.4482299977846331  4.4482299977846349  8.4667864123576653
  3.1810447351130122  3.1810447351130087  1.4788655707464966
 -0.3129163453261817  6.6750058155523977  4.9728266511858479
  6.6750058155523444 -0.3129163453262366  4.9728266511858177
  3.1810447351129443  3.1810447351129434  8.4667877316250149
  6.6750058155523391  6.6750058155523382 -2.0150955096927810
  3.1810447351130318 10.1689668959916091  1.4788655707465055
 10.1689668959916037  3.1810447351130229  1.4788655707464990
  6.6750058155522520  6.6750058155522485  4.9728266511857537
  2.0320541206796694  0.3206766884612038  0.3206766884611814
 -1.4619069597596124  3.8146377689005453  3.8146377689004316
  5.5260152011189518 -3.1732843919780525  3.8146377689004209
  2.0320541206796019  0.3206766884611478  7.3085988493397895
  5.5260152011190318  3.8146377689007012 -3.1732843919783154
  2.0320541206795704  7.3085988493399876  0.3206766884609758
  9.0199762815581028  0.3206766884609459  0.3206766884614338
  5.5260152011190486  3.8146377689007309  3.8146377689002176
  0.3206766884613206  2.0320541206797018  0.3206766884610696
 -3.1732843919782336  5.5260152011188799  3.8146377689006234
  3.8146377689006825 -1.4619069597596313  3.8146377689002633
  0.3206766884611952  2.0320541206796281  7.3085988493397505
  3.8146377689006061  5.5260152011189811 -3.1732843919782221
  0.3206766884610858  9.0199762815582858  0.3206766884612734
  7.3085988493396403  2.0320541206796694  0.3206766884613071
  3.8146377689005799  5.5260152011189962  3.8146377689003530
  5.5972219077290903  0.3206766184356392  0.3206766184356545
  2.1032608272896463  3.8146376988749342  3.8146376988749191
  9.0911829881683470 -3.1732844620036045  3.8146376988749706
  5.5972219077290326  0.3206766184357308  7.3085987793143037
  9.0911829881682813  3.8146376988748112 -3.1732844620037706
  5.5972219077291285  7.3085987793140132  0.3206766184354387
 12.5851440686074731  0.3206766184355945  0.3206766184355878
  9.0911829881682014  3.8146376988753152  3.8146376988753201
  0.3206766884612790  0.3206766884611127  2.0320541206796796
 -3.1732843919781679  3.8146377689005555  5.5260152011189474
  3.8146377689005440 -3.1732843919781546  5.5260152011189678
  0.3206766884614003  0.3206766884609520  9.0199762815581455
  3.8146377689005107  3.8146377689004614 -1.4619069597595895
  0.3206766884611480  7.3085988493398091  2.0320541206796734
  7.3085988493397691  0.3206766884611741  2.0320541206795966
  3.8146377689002873  3.8146377689006696  5.5260152011190709
  0.3206766184356791  5.5972219077290051  0.3206766184356716
 -3.1732844620035046  9.0911829881682973  3.8146376988750577
  3.8146376988749378  2.1032608272896867  3.8146376988749311
  0.3206766184358468  5.5972219077291063  7.3085987793144440
  3.8146376988750390  9.0911829881682991 -3.1732844620035281
  0.3206766184359504 12.5851440686074820  0.3206766184359239
  7.3085987793140452  5.5972219077291285  0.3206766184354531
  3.8146376988751611  9.0911829881682298  3.8146376988751518
  0.3206766184355824  0.3206766184355798  5.5972219077291214
 -3.1732844620035845  3.8146376988749831  9.0911829881683310
  3.8146376988750093 -3.1732844620035485  9.0911829881683275
  0.3206766184359801  0.3206766184359589 12.5851440686074962
  3.8146376988750736  3.8146376988750790  2.1032608272896955
  0.3206766184354625  7.3085987793140346  5.5972219077290593
  7.3085987793142513  0.3206766184356900  5.5972219077289740
  3.8146376988752100  3.8146376988752082  9.0911829881683808
  1.1989025247034142  1.1989025247034635  1.1989025247034850
 -2.2950585557357881  4.6928636051427421  4.6928636051427333
  4.6928636051426942 -2.2950585557358205  4.6928636051427963
  1.1989025247034384  1.1989025247035154  8.1868246855820566
  4.6928636051427066  4.6928636051427155 -2.2950585557357641
  1.1989025247035232  8.1868246855819677  1.1989025247034797
  8.1868246855820956  1.1989025247035003  1.1989025247034124
  4.6928636051427448  4.6928636051426675  4.6928636051427892
  2.9364125970237871 -2.2950589887179933  2.9364125970238866
 -0.5575484834154861  1.1989020917213380  6.4303736774631330
  6.4303736774630540 -5.7890200691573561  6.4303736774631703
  2.9364125970238666 -2.2950589887180808  9.9243347579022885
  6.4303736774631508  1.1989020917213145 -0.5575484834154975
  2.9364125970238044  4.6928631721605445  2.9364125970238564
  9.9243347579023258 -2.2950589887180852  2.9364125970238169
  6.4303736774631082  1.1989020917212470  6.4303736774630922
  2.9364125970237853  2.9364125970238333 -2.2950589887180550
 -0.5575484834154657  6.4303736774630940  1.1989020917212574
  6.4303736774630611 -0.5575484834154908  1.1989020917212594
  2.9364125970238835  2.9364125970237991  4.6928631721605409
  6.4303736774630718  6.4303736774631721 -5.7890200691573366
  2.9364125970238439  9.9243347579023098 -2.2950589887180959
  9.9243347579023524  2.9364125970238764 -2.2950589887180253
  6.4303736774630806  6.4303736774631730  1.1989020917213733
 -2.2950589887180541  2.9364125970238000  2.9364125970238124
 -5.7890200691574130  6.4303736774630744  6.4303736774630833
  1.1989020917213415 -0.5575484834154821  6.4303736774631206
 -2.2950589887180470  2.9364125970238231  9.9243347579023613
  1.1989020917212951  6.4303736774630700 -0.5575484834154071
 -2.2950589887181110  9.9243347579023169  2.9364125970238133
  4.6928631721605205  2.9364125970237622  2.9364125970238848
  1.1989020917213085  6.4303736774631721  6.4303736774630282
