C H
        1.0000000000
  16.126355306640718   0.000000000000000   0.639385559152879
   0.000000000000000  12.086610378799193   0.000000000000000
  -9.231498752028381   0.000000000000000  14.400808745026250
  160  128
 Direct
   0.046183515790177   0.004918053660308   0.165662789300155
   0.546183515790177   0.004918053660308   0.165662789300155
   0.046183515790177   0.504918053660308   0.165662789300155
   0.546183515790177   0.504918053660308   0.165662789300155
   0.046183515790177   0.004918053660308   0.665662789300155
   0.546183515790177   0.004918053660308   0.665662789300155
   0.046183515790177   0.504918053660308   0.665662789300155
   0.546183515790177   0.504918053660308   0.665662789300155
   0.453816534420034   0.495081946339690   0.334337307014327
   0.953816534420034   0.495081946339690   0.334337307014327
   0.453816534420034   0.995081946339690   0.334337307014327
   0.953816534420034   0.995081946339690   0.334337307014327
   0.453816534420034   0.495081946339690   0.834337307014327
   0.953816534420034   0.495081946339690   0.834337307014327
   0.453816534420034   0.995081946339690   0.834337307014327
   0.953816534420034   0.995081946339690   0.834337307014327
   0.203816534420033   0.254918053660308   0.334337307014327
   0.703816534420033   0.254918053660308   0.334337307014327
   0.203816534420033   0.754918053660308   0.334337307014327
   0.703816534420033   0.754918053660308   0.334337307014327
   0.203816534420033   0.254918053660308   0.834337307014327
   0.703816534420033   0.254918053660308   0.834337307014327
   0.203816534420033   0.754918053660308   0.834337307014327
   0.703816534420033   0.754918053660308   0.834337307014327
   0.296183515790177   0.245081946339691   0.165662789300155
   0.796183515790177   0.245081946339691   0.165662789300155
   0.296183515790177   0.745081946339691   0.165662789300155
   0.796183515790177   0.745081946339691   0.165662789300155
   0.296183515790177   0.245081946339691   0.665662789300155
   0.796183515790177   0.245081946339691   0.665662789300155
   0.296183515790177   0.745081946339691   0.665662789300155
   0.796183515790177   0.745081946339691   0.665662789300155
   0.058385817732771   0.078062594693471   0.110235954117942
   0.558385817732771   0.078062594693471   0.110235954117942
   0.058385817732771   0.578062594693471   0.110235954117942
   0.558385817732771   0.578062594693471   0.110235954117942
   0.058385817732771   0.078062594693471   0.610235954117942
   0.558385817732771   0.078062594693471   0.610235954117942
   0.058385817732771   0.578062594693471   0.610235954117942
   0.558385817732771   0.578062594693471   0.610235954117942
   0.441614232477440   0.421937405306526   0.389764142196541
   0.941614232477440   0.421937405306526   0.389764142196541
   0.441614232477440   0.921937405306526   0.389764142196541
   0.941614232477440   0.921937405306526   0.389764142196541
   0.441614232477440   0.421937405306526   0.889764142196541
   0.941614232477440   0.421937405306526   0.889764142196541
   0.441614232477440   0.921937405306526   0.889764142196541
   0.941614232477440   0.921937405306526   0.889764142196541
   0.191614232477440   0.328062594693471   0.389764142196542
   0.691614232477440   0.328062594693471   0.389764142196542
   0.191614232477440   0.828062594693471   0.389764142196542
   0.691614232477440   0.828062594693471   0.389764142196542
   0.191614232477440   0.328062594693471   0.889764142196542
   0.691614232477440   0.328062594693471   0.889764142196542
   0.191614232477440   0.828062594693471   0.889764142196542
   0.691614232477440   0.828062594693471   0.889764142196542
   0.308385817732771   0.171937405306527   0.110235954117942
   0.808385817732771   0.171937405306527   0.110235954117942
   0.308385817732771   0.671937405306527   0.110235954117942
   0.808385817732771   0.671937405306527   0.110235954117942
   0.308385817732771   0.171937405306527   0.610235954117942
   0.808385817732771   0.171937405306527   0.610235954117942
   0.308385817732771   0.671937405306527   0.610235954117942
   0.808385817732771   0.671937405306527   0.610235954117942
   0.023787848239966   0.052178826896563   0.017530685115771
   0.523787848239966   0.052178826896563   0.017530685115771
   0.023787848239966   0.552178826896563   0.017530685115771
   0.523787848239966   0.552178826896563   0.017530685115771
   0.023787848239966   0.052178826896563   0.517530685115771
   0.523787848239966   0.052178826896563   0.517530685115771
   0.023787848239966   0.552178826896563   0.517530685115771
   0.523787848239966   0.552178826896563   0.517530685115771
   0.476212201970245   0.447821173103435   0.482469411198713
   0.976212201970245   0.447821173103435   0.482469411198713
   0.476212201970245   0.947821173103435   0.482469411198713
   0.976212201970245   0.947821173103435   0.482469411198713
   0.476212201970245   0.447821173103435   0.982469411198713
   0.976212201970245   0.447821173103435   0.982469411198713
   0.476212201970245   0.947821173103435   0.982469411198713
   0.976212201970245   0.947821173103435   0.982469411198713
   0.226212201970245   0.302178826896562   0.482469411198712
   0.726212201970245   0.302178826896562   0.482469411198712
   0.226212201970245   0.802178826896562   0.482469411198712
   0.726212201970245   0.802178826896562   0.482469411198712
   0.226212201970245   0.302178826896562   0.982469411198712
   0.726212201970245   0.302178826896562   0.982469411198712
   0.226212201970245   0.802178826896562   0.982469411198712
   0.726212201970245   0.802178826896562   0.982469411198712
   0.273787848239965   0.197821173103436   0.017530685115771
   0.773787848239965   0.197821173103436   0.017530685115771
   0.273787848239965   0.697821173103436   0.017530685115771
   0.773787848239965   0.697821173103436   0.017530685115771
   0.273787848239965   0.197821173103436   0.517530685115771
   0.773787848239965   0.197821173103436   0.517530685115771
   0.273787848239965   0.697821173103436   0.517530685115771
   0.773787848239965   0.697821173103436   0.517530685115771
   0.034819617282821   0.125775990284803   0.458459422336761
   0.534819617282821   0.125775990284803   0.458459422336761
   0.034819617282821   0.625775990284803   0.458459422336761
   0.534819617282821   0.625775990284803   0.458459422336761
   0.034819617282821   0.125775990284803   0.958459422336761
   0.534819617282821   0.125775990284803   0.958459422336761
   0.034819617282821   0.625775990284803   0.958459422336761
   0.534819617282821   0.625775990284803   0.958459422336761
   0.465180432927390   0.374224009715194   0.041540673977724
   0.965180432927390   0.374224009715194   0.041540673977724
   0.465180432927390   0.874224009715194   0.041540673977724
   0.965180432927390   0.874224009715194   0.041540673977724
   0.465180432927390   0.374224009715194   0.541540673977724
   0.965180432927390   0.374224009715194   0.541540673977724
   0.465180432927390   0.874224009715194   0.541540673977724
   0.965180432927390   0.874224009715194   0.541540673977724
   0.215180432927391   0.375775990284802   0.041540673977723
   0.715180432927391   0.375775990284802   0.041540673977723
   0.215180432927391   0.875775990284802   0.041540673977723
   0.715180432927391   0.875775990284802   0.041540673977723
   0.215180432927391   0.375775990284802   0.541540673977723
   0.715180432927391   0.375775990284802   0.541540673977723
   0.215180432927391   0.875775990284802   0.541540673977723
   0.715180432927391   0.875775990284802   0.541540673977723
   0.284819617282821   0.124224009715196   0.458459422336760
   0.784819617282821   0.124224009715196   0.458459422336760
   0.284819617282821   0.624224009715196   0.458459422336760
   0.784819617282821   0.624224009715196   0.458459422336760
   0.284819617282821   0.124224009715196   0.958459422336760
   0.784819617282821   0.124224009715196   0.958459422336760
   0.284819617282821   0.624224009715196   0.958459422336760
   0.784819617282821   0.624224009715196   0.958459422336760
   0.001008784435146   0.097853724495776   0.369009386162084
   0.501008784435147   0.097853724495776   0.369009386162084
   0.001008784435146   0.597853724495776   0.369009386162084
   0.501008784435147   0.597853724495776   0.369009386162084
   0.001008784435146   0.097853724495776   0.869009386162084
   0.501008784435147   0.097853724495776   0.869009386162084
   0.001008784435146   0.597853724495776   0.869009386162084
   0.501008784435147   0.597853724495776   0.869009386162084
   0.498991265775064   0.402146275504223   0.130990710152399
   0.998991265775064   0.402146275504223   0.130990710152399
   0.498991265775064   0.902146275504223   0.130990710152399
   0.998991265775064   0.902146275504223   0.130990710152399
   0.498991265775064   0.402146275504223   0.630990710152399
   0.998991265775064   0.402146275504223   0.630990710152399
   0.498991265775064   0.902146275504223   0.630990710152399
   0.998991265775064   0.902146275504223   0.630990710152399
   0.248991265775064   0.347853724495774   0.130990710152399
   0.748991265775064   0.347853724495774   0.130990710152399
   0.248991265775064   0.847853724495774   0.130990710152399
   0.748991265775064   0.847853724495774   0.130990710152399
   0.248991265775064   0.347853724495774   0.630990710152399
   0.748991265775064   0.347853724495774   0.630990710152399
   0.248991265775064   0.847853724495774   0.630990710152399
   0.748991265775064   0.847853724495774   0.630990710152399
   0.251008784435146   0.152146275504223   0.369009386162083
   0.751008784435146   0.152146275504223   0.369009386162083
   0.251008784435146   0.652146275504224   0.369009386162083
   0.751008784435146   0.652146275504224   0.369009386162083
   0.251008784435146   0.152146275504223   0.869009386162083
   0.751008784435146   0.152146275504223   0.869009386162083
   0.251008784435146   0.652146275504224   0.869009386162083
   0.751008784435146   0.652146275504224   0.869009386162083
   0.072723357525869   0.026113302280910   0.236008311397790
   0.572723357525869   0.026113302280910   0.236008311397790
   0.072723357525869   0.526113302280910   0.236008311397790
   0.572723357525869   0.526113302280910   0.236008311397790
   0.072723357525869   0.026113302280910   0.736008311397790
   0.572723357525869   0.026113302280910   0.736008311397790
   0.072723357525869   0.526113302280910   0.736008311397790
   0.572723357525869   0.526113302280910   0.736008311397790
   0.427276692684343   0.473886697719089   0.263991784916693
   0.927276692684343   0.473886697719089   0.263991784916693
   0.427276692684343   0.973886697719089   0.263991784916693
   0.927276692684343   0.973886697719089   0.263991784916693
   0.427276692684343   0.473886697719089   0.763991784916693
   0.927276692684343   0.473886697719089   0.763991784916693
   0.427276692684343   0.973886697719089   0.763991784916693
   0.927276692684343   0.973886697719089   0.763991784916693
   0.177276692684342   0.276113302280909   0.263991784916693
   0.677276692684342   0.276113302280909   0.263991784916693
   0.177276692684342   0.776113302280909   0.263991784916693
   0.677276692684342   0.776113302280909   0.263991784916693
   0.177276692684342   0.276113302280909   0.763991784916693
   0.677276692684342   0.276113302280909   0.763991784916693
   0.177276692684342   0.776113302280909   0.763991784916693
   0.677276692684342   0.776113302280909   0.763991784916693
   0.322723357525869   0.223886697719090   0.236008311397790
   0.822723357525869   0.223886697719090   0.236008311397790
   0.322723357525869   0.723886697719090   0.236008311397790
   0.822723357525869   0.723886697719090   0.236008311397790
   0.322723357525869   0.223886697719090   0.736008311397790
   0.822723357525869   0.223886697719090   0.736008311397790
   0.322723357525869   0.723886697719090   0.736008311397790
   0.822723357525869   0.723886697719090   0.736008311397790
   0.094320593388646   0.156657535932632   0.136440898029598
   0.594320593388646   0.156657535932632   0.136440898029598
   0.094320593388646   0.656657535932632   0.136440898029598
   0.594320593388646   0.656657535932632   0.136440898029598
   0.094320593388646   0.156657535932632   0.636440898029598
   0.594320593388646   0.156657535932632   0.636440898029598
   0.094320593388646   0.656657535932632   0.636440898029598
   0.594320593388646   0.656657535932632   0.636440898029598
   0.405679456821565   0.343342464067366   0.363559198284886
   0.905679456821565   0.343342464067366   0.363559198284886
   0.405679456821565   0.843342464067366   0.363559198284886
   0.905679456821565   0.843342464067366   0.363559198284886
   0.405679456821565   0.343342464067366   0.863559198284886
   0.905679456821565   0.343342464067366   0.863559198284886
   0.405679456821565   0.843342464067366   0.863559198284886
   0.905679456821565   0.843342464067366   0.863559198284886
   0.155679456821565   0.406657535932631   0.363559198284886
   0.655679456821565   0.406657535932631   0.363559198284886
   0.155679456821565   0.906657535932631   0.363559198284886
   0.655679456821565   0.906657535932631   0.363559198284886
   0.155679456821565   0.406657535932631   0.863559198284886
   0.655679456821565   0.406657535932631   0.863559198284886
   0.155679456821565   0.906657535932631   0.863559198284886
   0.655679456821565   0.906657535932631   0.863559198284886
   0.344320593388645   0.093342464067367   0.136440898029597
   0.844320593388645   0.093342464067367   0.136440898029597
   0.344320593388645   0.593342464067367   0.136440898029597
   0.844320593388645   0.593342464067367   0.136440898029597
   0.344320593388645   0.093342464067367   0.636440898029597
   0.844320593388645   0.093342464067367   0.636440898029597
   0.344320593388645   0.593342464067367   0.636440898029597
   0.844320593388645   0.593342464067367   0.636440898029597
   0.070469663598259   0.204320997357291   0.484941600543262
   0.570469663598259   0.204320997357291   0.484941600543262
   0.070469663598259   0.704320997357291   0.484941600543262
   0.570469663598259   0.704320997357291   0.484941600543262
   0.070469663598259   0.204320997357291   0.984941600543262
   0.570469663598259   0.204320997357291   0.984941600543262
   0.070469663598259   0.704320997357291   0.984941600543262
   0.570469663598259   0.704320997357291   0.984941600543262
   0.429530386611953   0.295679002642708   0.015058495771222
   0.929530386611953   0.295679002642708   0.015058495771222
   0.429530386611953   0.795679002642708   0.015058495771222
   0.929530386611953   0.795679002642708   0.015058495771222
   0.429530386611953   0.295679002642708   0.515058495771222
   0.929530386611953   0.295679002642708   0.515058495771222
   0.429530386611953   0.795679002642708   0.515058495771222
   0.929530386611953   0.795679002642708   0.515058495771222
   0.179530386611953   0.454320997357290   0.015058495771222
   0.679530386611953   0.454320997357290   0.015058495771222
   0.179530386611953   0.954320997357289   0.015058495771222
   0.679530386611953   0.954320997357289   0.015058495771222
   0.179530386611953   0.454320997357290   0.515058495771222
   0.679530386611953   0.454320997357290   0.515058495771222
   0.179530386611953   0.954320997357289   0.515058495771222
   0.679530386611953   0.954320997357289   0.515058495771222
   0.320469663598258   0.045679002642708   0.484941600543261
   0.820469663598258   0.045679002642708   0.484941600543261
   0.320469663598258   0.545679002642709   0.484941600543261
   0.820469663598258   0.545679002642709   0.484941600543261
   0.320469663598258   0.045679002642708   0.984941600543261
   0.820469663598258   0.045679002642708   0.984941600543261
   0.320469663598258   0.545679002642709   0.984941600543261
   0.820469663598258   0.545679002642709   0.984941600543261
   0.010747572462932   0.154503522790919   0.325088813139241
   0.510747572462932   0.154503522790919   0.325088813139241
   0.010747572462932   0.654503522790919   0.325088813139241
   0.510747572462932   0.654503522790919   0.325088813139241
   0.010747572462932   0.154503522790919   0.825088813139241
   0.510747572462932   0.154503522790919   0.825088813139241
   0.010747572462932   0.654503522790919   0.825088813139241
   0.510747572462932   0.654503522790919   0.825088813139241
   0.489252477747279   0.345496477209079   0.174911283175242
   0.989252477747279   0.345496477209079   0.174911283175242
   0.489252477747279   0.845496477209079   0.174911283175242
   0.989252477747279   0.845496477209079   0.174911283175242
   0.489252477747279   0.345496477209079   0.674911283175242
   0.989252477747279   0.345496477209079   0.674911283175242
   0.489252477747279   0.845496477209079   0.674911283175242
   0.989252477747279   0.845496477209079   0.674911283175242
   0.239252477747279   0.404503522790918   0.174911283175242
   0.739252477747279   0.404503522790918   0.174911283175242
   0.239252477747279   0.904503522790918   0.174911283175242
   0.739252477747279   0.904503522790918   0.174911283175242
   0.239252477747279   0.404503522790918   0.674911283175242
   0.739252477747279   0.404503522790918   0.674911283175242
   0.239252477747279   0.904503522790918   0.674911283175242
   0.739252477747279   0.904503522790918   0.674911283175242
   0.260747572462933   0.095496477209081   0.325088813139241
   0.760747572462932   0.095496477209081   0.325088813139241
   0.260747572462933   0.595496477209081   0.325088813139241
   0.760747572462932   0.595496477209081   0.325088813139241
   0.260747572462933   0.095496477209081   0.825088813139241
   0.760747572462932   0.095496477209081   0.825088813139241
   0.260747572462933   0.595496477209081   0.825088813139241
   0.760747572462932   0.595496477209081   0.825088813139241
