 C  H 
 1.0000000000000000
    16.8506610570231246    0.0000000000000000    0.4304526350779484
     0.0000000000000000   12.1190207998818220    0.0000000000000000
   -12.3873972798837126    0.0000000000000000   18.4103633170113383
 C   H  
 224 160
Selective dynamics
Cartesian
 -1.4966520379482084  0.1842529897606942  3.4214159404031537   T   T   T
  6.9286784905633780  0.1842529897606941  3.6366422579421336   T   T   T
 -1.4966520379482084  6.2437633897015958  3.4214159404031537   T   T   T
  6.9286784905633780  6.2437633897015958  3.6366422579421327   T   T   T
 -7.6903506778900619  0.1842529897606942 12.6265975989088552   T   T   T
  0.7349798506214952  0.1842529897606942 12.8418239164478276   T   T   T
 -7.6903506778900619  6.2437633897015958 12.6265975989088552   T   T   T
  0.7349798506214953  6.2437633897015958 12.8418239164478294   T   T   T
 -0.7116239170880386  0.9578433986391282  2.5982745606007489   T   T   T
  7.7137066114235555  0.9578433986391284  2.8135008781397235   T   T   T
 -0.7116239170880383  7.0173537985800163  2.5982745606007493   T   T   T
  7.7137066114235555  7.0173537985800163  2.8135008781397239   T   T   T
 -6.9053225570299146  0.9578433986391282 11.8034562191064509   T   T   T
  1.5200079714816677  0.9578433986391282 12.0186825366454251   T   T   T
 -6.9053225570299146  7.0173537985800163 11.8034562191064509   T   T   T
  1.5200079714816677  7.0173537985800163 12.0186825366454251   T   T   T
 -0.3486200809505999  0.5046350860600333  1.2883901338536874   T   T   T
  8.0767104475609717  0.5046350860600330  1.5036164513926631   T   T   T
 -0.3486200809505998  6.5641454860009407  1.2883901338536869   T   T   T
  8.0767104475609717  6.5641454860009407  1.5036164513926631   T   T   T
 -6.5423187208924753  0.5046350860600333 10.4935717923593508   T   T   T
  1.8830118076191071  0.5046350860600330 10.7087981098983516   T   T   T
 -6.5423187208924753  6.5641454860009407 10.4935717923593508   T   T   T
  1.8830118076191071  6.5641454860009407 10.7087981098983516   T   T   T
  0.4507600888505609  1.2695792461069313  0.4230805568604525   T   T   T
  8.8760906173621503  1.2695792461069313  0.6383068743994307   T   T   T
  0.4507600888505610  7.3290896460478274  0.4230805568604525   T   T   T
  8.8760906173621503  7.3290896460478274  0.6383068743994307   T   T   T
 -5.7429385510912994  1.2695792461069313  9.6282622153661102   T   T   T
  2.6823919774202669  1.2695792461069313  9.8434885329051056   T   T   T
 -5.7429385510912994  7.3290896460478274  9.6282622153661102   T   T   T
  2.6823919774202669  7.3290896460478274  9.8434885329051056   T   T   T
  7.6122512068792627  5.2590552559405097  1.0665088330388652   T   T   T
 16.0375817353908268  5.2590552559405088  1.2817351505778372   T   T   T
  7.6122512068792627 11.3185656558814092  1.0665088330388650   T   T   T
 16.0375817353908268 11.3185656558814092  1.2817351505778372   T   T   T
  1.4185525669373711  5.2590552559405088 10.2716904915445451   T   T   T
  9.8438830954489323  5.2590552559405097 10.4869168090835334   T   T   T
  1.4185525669373711 11.3185656558814092 10.2716904915445451   T   T   T
  9.8438830954489323 11.3185656558814092 10.4869168090835334   T   T   T
  6.7975737595134715  4.4889197986202616  1.9559134590122378   T   T   T
 15.2229042880250649  4.4889197986202616  2.1711397765512133   T   T   T
  6.7975737595134715 10.5484301985611513  1.9559134590122382   T   T   T
 15.2229042880250649 10.5484301985611513  2.1711397765512133   T   T   T
  0.6038751195715903  4.4889197986202616 11.1610951175179345   T   T   T
  9.0292056480831437  4.4889197986202616 11.3763214350569299   T   T   T
  0.6038751195715903 10.5484301985611513 11.1610951175179345   T   T   T
  9.0292056480831437 10.5484301985611513 11.3763214350569299   T   T   T
  6.4599436451718315  4.9667094115795924  3.1999359533474743   T   T   T
 14.8852741736834275  4.9667094115795924  3.4151622708864466   T   T   T
  6.4599436451718315 11.0262198115204928  3.1999359533474743   T   T   T
 14.8852741736834275 11.0262198115204928  3.4151622708864462   T   T   T
  0.2662450052299344  4.9667094115795924 12.4051176118531679   T   T   T
  8.6915755337415135  4.9667094115795924 12.6203439293921615   T   T   T
  0.2662450052299344 11.0262198115204928 12.4051176118531714   T   T   T
  8.6915755337415135 11.0262198115204928 12.6203439293921615   T   T   T
 -5.3806199084316706  0.8004551440003721  8.3538989122111413   T   T   T
  3.0447106200799041  0.8004551440003719  8.5691252297501119   T   T   T
 -5.3806199084316706  6.8599655439412581  8.3538989122111413   T   T   T
  3.0447106200799041  6.8599655439412581  8.5691252297501119   T   T   T
 -11.5743185483735509  0.8004551440003719 17.5590805707168336   T   T   T
 -3.1489880198619709  0.8004551440003721 17.7743068882557864   T   T   T
 -11.5743185483735509  6.8599655439412572 17.5590805707168336   T   T   T
 -3.1489880198619704  6.8599655439412581 17.7743068882557864   T   T   T
  1.7808712095970192  4.7899311538339431  8.9973271883895531   T   T   T
 10.2062017381085965  4.7899311538339431  9.2125535059285291   T   T   T
  1.7808712095970192 10.8494415537748488  8.9973271883895531   T   T   T
 10.2062017381085965 10.8494415537748488  9.2125535059285291   T   T   T
 -4.4128274303448585  4.7899311538339431 18.2025088468952134   T   T   T
  4.0125030981667233  4.7899311538339431 18.4177351644342089   T   T   T
 -4.4128274303448585 10.8494415537748488 18.2025088468952134   T   T   T
  4.0125030981667233 10.8494415537748488 18.4177351644342089   T   T   T
  2.5802513793981792  5.5548753138808529  8.1320176113963090   T   T   T
 11.0055819079097557  5.5548753138808529  8.3472439289352938   T   T   T
  2.5802513793981796 11.6143857138217275  8.1320176113963090   T   T   T
 11.0055819079097557 11.6143857138217275  8.3472439289352938   T   T   T
 -3.6134472605437056  5.5548753138808529 17.3371992699019373   T   T   T
  4.8118832679678727  5.5548753138808529 17.5524255874409292   T   T   T
 -3.6134472605437056 11.6143857138217275 17.3371992699019408   T   T   T
  4.8118832679678727 11.6143857138217275 17.5524255874409292   T   T   T
 -4.5659424610658847  1.5705906013206188  7.4644942862377661   T   T   T
  3.8593880674456895  1.5705906013206188  7.6797206037767385   T   T   T
 -4.5659424610658847  7.6301010012615063  7.4644942862377661   T   T   T
  3.8593880674456895  7.6301010012615063  7.6797206037767385   T   T   T
 -10.7596411010077571  1.5705906013206188 16.6696759447434317   T   T   T
 -2.3343105724961837  1.5705906013206188 16.8849022622823561   T   T   T
 -10.7596411010077571  7.6301010012615063 16.6696759447434317   T   T   T
 -2.3343105724961837  7.6301010012615063 16.8849022622823561   T   T   T
  2.9432552155356113  5.1016670013017515  6.8221331846492355   T   T   T
 11.3685857440471825  5.1016670013017515  7.0373595021882096   T   T   T
  2.9432552155356118 11.1611774012426537  6.8221331846492363   T   T   T
 11.3685857440471825 11.1611774012426537  7.0373595021882096   T   T   T
 -3.2504434244062574  5.1016670013017515 16.0273148431549259   T   T   T
  5.1748871041053226  5.1016670013017515 16.2425411606939463   T   T   T
 -3.2504434244062574 11.1611774012426537 16.0273148431549259   T   T   T
  5.1748871041053226 11.1611774012426537 16.2425411606939463   T   T   T
 -4.2283123467242270  1.0928009883612786  6.2204717919025203   T   T   T
  4.1970181817873300  1.0928009883612786  6.4356981094415060   T   T   T
 -4.2283123467242270  7.1523113883021772  6.2204717919025203   T   T   T
  4.1970181817873300  7.1523113883021772  6.4356981094415078   T   T   T
 -10.4220109866661144  1.0928009883612786 15.4256534504082108   T   T   T
 -1.9966804581545241  1.0928009883612786 15.6408797679471672   T   T   T
 -10.4220109866661144  7.1523113883021772 15.4256534504082108   T   T   T
 -1.9966804581545241  7.1523113883021772 15.6408797679471672   T   T   T
  3.7282833363957937  5.8752574101801933  5.9989918048468427   T   T   T
 12.1536138649074079  5.8752574101801933  6.2142181223858275   T   T   T
  3.7282833363957937 11.9347678101210803  5.9989918048468418   T   T   T
 12.1536138649074079 11.9347678101210803  6.2142181223858275   T   T   T
 -2.4654153035460875  5.8752574101801933 15.2041734633525429   T   T   T
  5.9599152249654814  5.8752574101801933 15.4193997808915189   T   T   T
 -2.4654153035460875 11.9347678101210803 15.2041734633525412   T   T   T
  5.9599152249654814 11.9347678101210803 15.4193997808915206   T   T   T
 -0.4843819278600037  3.2140081897311465  5.8913786460773485   T   T   T
  7.9409486006515637  3.2140081897311465  6.1066049636163289   T   T   T
 -0.4843819278600037  9.2735185896719976  5.8913786460773476   T   T   T
  7.9409486006515637  9.2735185896719976  6.1066049636163289   T   T   T
 -6.6780805678018877  3.2140081897311465 15.0965603045830310   T   T   T
  1.7472499607096996  3.2140081897311465 15.3117866221220300   T   T   T
 -6.6780805678018877  9.2735185896719976 15.0965603045830310   T   T   T
  1.7472499607096996  9.2735185896719976 15.3117866221220318   T   T   T
  2.7160132263075800  2.8455022102097529  3.5290290991726470   T   T   T
 11.1413437548191698  2.8455022102097529  3.7442554167116184   T   T   T
  2.7160132263075800  8.9050126101505924  3.5290290991726465   T   T   T
 11.1413437548191698  8.9050126101505924  3.7442554167116180   T   T   T
 -3.4776854136342958  2.8455022102097529 12.7342107576783494   T   T   T
  4.9476451148772762  2.8455022102097529 12.9494370752173271   T   T   T
 -3.4776854136342958  8.9050126101505924 12.7342107576783494   T   T   T
  4.9476451148772762  8.9050126101505924 12.9494370752173271   T   T   T
 -1.2694100487201787  3.9875985986095661  6.7145200258797502   T   T   T
  7.1559204797914058  3.9875985986095661  6.9297463434187172   T   T   T
 -1.2694100487201787 10.0471089985504438  6.7145200258797493   T   T   T
  7.1559204797914058 10.0471089985504438  6.9297463434187172   T   T   T
 -7.4631086886620635  3.9875985986095657 15.9197016843854424   T   T   T
  0.9622218398495304  3.9875985986095657 16.1349280019244361   T   T   T
 -7.4631086886620635 10.0471089985504438 15.9197016843854442   T   T   T
  0.9622218398495305 10.0471089985504438 16.1349280019244361   T   T   T
  3.5010413471677486  2.0719118013313191  2.7058877193702364   T   T   T
 11.9263718756793899  2.0719118013313196  2.9211140369092123   T   T   T
  3.5010413471677486  8.1314222012721586  2.7058877193702364   T   T   T
 11.9263718756793899  8.1314222012721586  2.9211140369092137   T   T   T
 -2.6926572927741241  2.0719118013313196 11.9110693778759167   T   T   T
  5.7326732357374475  2.0719118013313196 12.1262956954149388   T   T   T
 -2.6926572927741241  8.1314222012721586 11.9110693778759167   T   T   T
  5.7326732357374475  8.1314222012721586 12.1262956954149352   T   T   T
 -1.6324138848576142  3.5343902860304768  8.0244044526268112   T   T   T
  6.7929166436539701  3.5343902860304768  8.2396307701657960   T   T   T
 -1.6324138848576142  9.5939006859713665  8.0244044526268112   T   T   T
  6.7929166436539710  9.5939006859713665  8.2396307701657960   T   T   T
 -7.8261125247994858  3.5343902860304768 17.2295861111325053   T   T   T
  0.5992180037120914  3.5343902860304768 17.4448124286713977   T   T   T
 -7.8261125247994858  9.5939006859713665 17.2295861111325017   T   T   T
  0.5992180037120914  9.5939006859713665 17.4448124286714012   T   T   T
  3.8640451833051932  2.5251201139104111  1.3960032926231736   T   T   T
 12.2893757118168327  2.5251201139104102  1.6112296101621515   T   T   T
  3.8640451833051932  8.5846305138512342  1.3960032926231736   T   T   T
 12.2893757118168327  8.5846305138512342  1.6112296101621517   T   T   T
 -2.3296534566366831  2.5251201139104111 10.6011849511288752   T   T   T
  6.0956770718749347  2.5251201139104102 10.8164112686678511   T   T   T
 -2.3296534566366831  8.5846305138512342 10.6011849511288752   T   T   T
  6.0956770718749347  8.5846305138512342 10.8164112686678511   T   T   T
 -2.4317940546587695  4.2993344460773608  8.8897140296200554   T   T   T
  5.9935364738527879  4.2993344460773608  9.1049403471590438   T   T   T
 -2.4317940546587695 10.3588448460182594  8.8897140296200554   T   T   T
  5.9935364738527879 10.3588448460182594  9.1049403471590438   T   T   T
 -8.6254926946006414  4.2993344460773608 18.0948956881257210   T   T   T
 -0.2001621660890700  4.2993344460773608 18.3101220056645957   T   T   T
 -8.6254926946006414 10.3588448460182594 18.0948956881257210   T   T   T
 -0.2001621660890700 10.3588448460182594 18.3101220056645957   T   T   T
  4.6634253531063576  1.7601759538635198  0.5306937156299426   T   T   T
 13.0887558816179865  1.7601759538635198  0.7459200331689191   T   T   T
  4.6634253531063576  7.8196863538044026  0.5306937156299426   T   T   T
 13.0887558816179865  7.8196863538044026  0.7459200331689189   T   T   T
 -1.5302732868355244  1.7601759538635198  9.7358753741356274   T   T   T
  6.8950572416760672  1.7601759538635198  9.9511016916746033   T   T   T
 -1.5302732868355244  7.8196863538044026  9.7358753741356274   T   T   T
  6.8950572416760672  7.8196863538044026  9.9511016916746033   T   T   T
 -1.1679546441758804  2.2293000559700782  8.4615120709805964   T   T   T
  7.2573758843357155  2.2293000559700782  8.6767383885196008   T   T   T
 -1.1679546441758801  8.2888104559109284  8.4615120709805964   T   T   T
  7.2573758843357155  8.2888104559109284  8.6767383885196008   T   T   T
 -7.3616532841177600  2.2293000559700782 17.6666937294863189   T   T   T
  1.0636772443938272  2.2293000559700782 17.8819200470252646   T   T   T
 -7.3616532841177591  8.2888104559109284 17.6666937294863189   T   T   T
  1.0636772443938274  8.2888104559109284 17.8819200470252646   T   T   T
  3.3995859426234674  3.8302103439708097  0.9588956742693757   T   T   T
 11.8249164711350865  3.8302103439708097  1.1741219918083534   T   T   T
  3.3995859426234674  9.8897207439116777  0.9588956742693757   T   T   T
 11.8249164711350865  9.8897207439116777  1.1741219918083534   T   T   T
 -2.7941126973184067  3.8302103439708097 10.1640773327750811   T   T   T
  5.6312178311931556  3.8302103439708097 10.3793036503140534   T   T   T
 -2.7941126973184067  9.8897207439116777 10.1640773327750811   T   T   T
  5.6312178311931556  9.8897207439116777 10.3793036503140517   T   T   T
 -0.3532771968100991  1.4591645986498349  7.5721074450072550   T   T   T
  8.0720533317014738  1.4591645986498349  7.7873337625462229   T   T   T
 -0.3532771968100991  7.5186749985907246  7.5721074450072550   T   T   T
  8.0720533317014738  7.5186749985907246  7.7873337625462220   T   T   T
 -6.5469758367519786  1.4591645986498349 16.7772891035129064   T   T   T
  1.8783546917596070  1.4591645986498349 16.9925154210518663   T   T   T
 -6.5469758367519786  7.5186749985907246 16.7772891035129064   T   T   T
  1.8783546917596070  7.5186749985907246 16.9925154210518663   T   T   T
  2.5849084952576784  4.6003458012910450  1.8483003002427492   T   T   T
 11.0102390237692500  4.6003458012910450  2.0635266177817240   T   T   T
  2.5849084952576784 10.6598562012319338  1.8483003002427492   T   T   T
 11.0102390237692500 10.6598562012319338  2.0635266177817235   T   T   T
 -3.6087901446842023  4.6003458012910450 11.0534819587484421   T   T   T
  4.8165403838273795  4.6003458012910450 11.2687082762874322   T   T   T
 -3.6087901446842019 10.6598562012319338 11.0534819587484421   T   T   T
  4.8165403838273795 10.6598562012319338 11.2687082762874322   T   T   T
 -0.0156470824684426  1.9369542116091718  6.3280849506720092   T   T   T
  8.4096834460431165  1.9369542116091709  6.5433112682109806   T   T   T
 -0.0156470824684426  7.9964646115500422  6.3280849506720074   T   T   T
  8.4096834460431165  7.9964646115500422  6.5433112682109806   T   T   T
 -6.2093457224103359  1.9369542116091714 15.5332666091776872   T   T   T
  2.2159848061012539  1.9369542116091714 15.7484929267166880   T   T   T
 -6.2093457224103359  7.9964646115500422 15.5332666091776890   T   T   T
  2.2159848061012539  7.9964646115500422 15.7484929267166915   T   T   T
  2.2472783809160179  4.1225561883317114  3.0923227945779876   T   T   T
 10.6726089094276020  4.1225561883317114  3.3075491121169494   T   T   T
  2.2472783809160179 10.1820665882726047  3.0923227945779868   T   T   T
 10.6726089094276020 10.1820665882726047  3.3075491121169494   T   T   T
 -3.9464202590258433  4.1225561883317114 12.2975044530836879   T   T   T
  4.4789102694857217  4.1225561883317114 12.5127307706226727   T   T   T
 -3.9464202590258433 10.1820665882726047 12.2975044530836861   T   T   T
  4.4789102694857217 10.1820665882726047 12.5127307706226727   T   T   T
 -1.7593584642039732  0.5419507832092199  4.4105410219043089   T   T   T
  6.6659720643076312  0.5419507832092195  4.6257673394432750   T   T   T
 -1.7593584642039732  6.6014611831501240  4.4105410219043106   T   T   T
  6.6659720643076312  6.6014611831501240  4.6257673394432759   T   T   T
 -7.9530571041458327  0.5419507832092194 13.6157226804100144   T   T   T
  0.4722734243657338  0.5419507832092193 13.8309489979489868   T   T   T
 -7.9530571041458327  6.6014611831501240 13.6157226804100144   T   T   T
  0.4722734243657338  6.6014611831501240 13.8309489979489868   T   T   T
 -0.3561468615956541  1.9291699171621850  2.9260228254887015   T   T   T
  8.0691836669159329  1.9291699171621850  3.1412491430276868   T   T   T
 -0.3561468615956542  7.9886803171030749  2.9260228254887015   T   T   T
  8.0691836669159329  7.9886803171030749  3.1412491430276859   T   T   T
 -6.5498455015375390  1.9291699171621850 12.1312044839944253   T   T   T
  1.8754850269740513  1.9291699171621846 12.3464308015334083   T   T   T
 -6.5498455015375390  7.9886803171030749 12.1312044839944271   T   T   T
  1.8754850269740513  7.9886803171030749 12.3464308015334066   T   T   T
  0.8040201797181812  2.2432469146993075  0.7492520896733960   T   T   T
  9.2293507082297825  2.2432469146993075  0.9644784072123701   T   T   T
  0.8040201797181812  8.3027573146401483  0.7492520896733960   T   T   T
  9.2293507082297825  8.3027573146401483  0.9644784072123701   T   T   T
 -5.3896784602236814  2.2432469146993075  9.9544337481790830   T   T   T
  3.0356520682878827  2.2432469146993075 10.1696600657180696   T   T   T
 -5.3896784602236814  8.3027573146401483  9.9544337481790830   T   T   T
  3.0356520682878827  8.3027573146401483 10.1696600657180696   T   T   T
  6.4516794346881863  3.5160164166181169  1.6291493070819907   T   T   T
 14.8770099631997539  3.5160164166181169  1.8443756246209644   T   T   T
  6.4516794346881863  9.5755268165589982  1.6291493070819907   T   T   T
 14.8770099631997539  9.5755268165589982  1.8443756246209644   T   T   T
  0.2579807947462864  3.5160164166181169 10.8343309655876840   T   T   T
  8.6833113232578345  3.5160164166181169 11.0495572831266742   T   T   T
  0.2579807947462864  9.5755268165589982 10.8343309655876840   T   T   T
  8.6833113232578345  9.5755268165589982 11.0495572831266742   T   T   T
  5.8390687358915310  4.3686885108657023  3.8588277664322095   T   T   T
 14.2643992644031368  4.3686885108657023  4.0740540839711841   T   T   T
  5.8390687358915301 10.4281989108065911  3.8588277664322086   T   T   T
 14.2643992644031368 10.4281989108065911  4.0740540839711832   T   T   T
 -0.3546299040503366  4.3686885108657023 13.0640094249379040   T   T   T
  8.0707006244612334  4.3686885108657023 13.2792357424769047   T   T   T
 -0.3546299040503366 10.4281989108065911 13.0640094249379040   T   T   T
  8.0707006244612334 10.4281989108065911 13.2792357424769030   T   T   T
  1.4276111187293974  3.8162634852415800  8.6711556555765714   T   T   T
  9.8529416472409768  3.8162634852415800  8.8863819731155722   T   T   T
  1.4276111187293967  9.8757738851824399  8.6711556555765714   T   T   T
  9.8529416472409768  9.8757738851824399  8.8863819731155722   T   T   T
 -4.7660875212124729  3.8162634852415800 17.8763373140822246   T   T   T
  3.6592430072991027  3.8162634852415800 18.0915636316212378   T   T   T
 -4.7660875212124729  9.8757738851824399 17.8763373140822246   T   T   T
  3.6592430072991027  9.8757738851824399 18.0915636316212378   T   T   T
 -4.2200481362405764  2.5434939833227750  7.7912584381680023   T   T   T
  4.2052823922709859  2.5434939833227750  8.0064847557069783   T   T   T
 -4.2200481362405764  8.6030043832635865  7.7912584381680023   T   T   T
  4.2052823922709859  8.6030043832635865  8.0064847557069783   T   T   T
 -10.4137467761824283  2.5434939833227750 16.9964400966736449   T   T   T
 -1.9884162476708798  2.5434939833227750 17.2116664142126012   T   T   T
 -10.4137467761824283  8.6030043832635865 16.9964400966736449   T   T   T
 -1.9884162476708798  8.6030043832635865 17.2116664142126012   T   T   T
  2.5877781600432326  4.1303404827786876  6.4943849197612868   T   T   T
 11.0131086885548068  4.1303404827786876  6.7096112373002601   T   T   T
  2.5877781600432326 10.1898508827195915  6.4943849197612868   T   T   T
 11.0131086885548051 10.1898508827195915  6.7096112373002601   T   T   T
 -3.6059204798986468  4.1303404827786876 15.6995665782669569   T   T   T
  4.8194100486129257  4.1303404827786876 15.9147928958059399   T   T   T
 -3.6059204798986473 10.1898508827195915 15.6995665782669587   T   T   T
  4.8194100486129257 10.1898508827195915 15.9147928958059381   T   T   T
 -3.6074374374439633  1.6908218890751785  5.5615799788177895   T   T   T
  4.8178930910676181  1.6908218890751776  5.7768062963567681   T   T   T
 -3.6074374374439628  7.7503322890160620  5.5615799788177895   T   T   T
  4.8178930910676172  7.7503322890160620  5.7768062963567681   T   T   T
 -9.8011360773858396  1.6908218890751776 14.7667616373235031   T   T   T
 -1.3758055488742567  1.6908218890751781 14.9819879548624471   T   T   T
 -9.8011360773858396  7.7503322890160620 14.7667616373235013   T   T   T
 -1.3758055488742567  7.7503322890160620 14.9819879548624471   T   T   T
  3.9909897626515289  5.5175596167316661  5.0098667233456808   T   T   T
 12.4163202911631654  5.5175596167316661  5.2250930408846594   T   T   T
  3.9909897626515280 11.5770700166725504  5.0098667233456800   T   T   T
 12.4163202911631654 11.5770700166725504  5.2250930408846594   T   T   T
 -2.2027088772903247  5.5175596167316661 14.2150483818513607   T   T   T
  6.2226216512212638  5.5175596167316661 14.4302746993903614   T   T   T
 -2.2027088772903247 11.5770700166725504 14.2150483818513607   T   T   T
  6.2226216512212638 11.5770700166725504 14.4302746993903614   T   T   T
 -0.2216755016042425  3.5717059831796654  4.9022535645761955   T   T   T
  8.2036550269073096  3.5717059831796658  5.1174798821151626   T   T   T
 -0.2216755016042425  9.6312163831205382  4.9022535645761955   T   T   T
  8.2036550269073096  9.6312163831205382  5.1174798821151635   T   T   T
 -6.4153741415461436  3.5717059831796654 14.1074352230818612   T   T   T
  2.0099563869654631  3.5717059831796658 14.3226615406208424   T   T   T
 -6.4153741415461436  9.6312163831205382 14.1074352230818612   T   T   T
  2.0099563869654631  9.6312163831205382 14.3226615406208424   T   T   T
  2.4533068000518199  2.4878044167612217  4.5181541806737906   T   T   T
 10.8786373285633999  2.4878044167612217  4.7333804982127834   T   T   T
  2.4533068000518199  8.5473148167020536  4.5181541806737915   T   T   T
 10.8786373285633999  8.5473148167020536  4.7333804982127834   T   T   T
 -3.7403918398900391  2.4878044167612217 13.7233358391794997   T   T   T
  4.6849386886215321  2.4878044167612225 13.9385621567184810   T   T   T
 -3.7403918398900391  8.5473148167020536 13.7233358391794997   T   T   T
  4.6849386886215321  8.5473148167020536 13.9385621567184810   T   T   T
 -1.6248871042125586  4.9589251171326199  6.3867717609917909   T   T   T
  6.8004434242990186  4.9589251171326199  6.6019980785307633   T   T   T
 -1.6248871042125588 11.0184355170734989  6.3867717609917909   T   T   T
  6.8004434242990186 11.0184355170734989  6.6019980785307633   T   T   T
 -7.8185857441544542  4.9589251171326199 15.5919534194974734   T   T   T
  0.6067447843571456  4.9589251171326199 15.8071797370364511   T   T   T
 -7.8185857441544542 11.0184355170734989 15.5919534194974734   T   T   T
  0.6067447843571456 11.0184355170734989 15.8071797370364511   T   T   T
  3.8565184026601353  1.1005852828082658  3.0336359842581921   T   T   T
 12.2818489311717887  1.1005852828082663  3.2488623017971725   T   T   T
  3.8565184026601353  7.1600956827491560  3.0336359842581926   T   T   T
 12.2818489311717887  7.1600956827491560  3.2488623017971738   T   T   T
 -2.3371802372817387  1.1005852828082654 12.2388176427638893   T   T   T
  6.0881502912298568  1.1005852828082658 12.4540439603028847   T   T   T
 -2.3371802372817387  7.1600956827491560 12.2388176427638893   T   T   T
  6.0881502912298568  7.1600956827491560 12.4540439603028865   T   T   T
 -2.7850541455263853  5.2730021146697394  8.5635424968070932   T   T   T
  5.6402763829851708  5.2730021146697394  8.7787688143460780   T   T   T
 -2.7850541455263853 11.3325125146106345  8.5635424968070932   T   T   T
  5.6402763829851708 11.3325125146106345  8.7787688143460780   T   T   T
 -8.9787527854682825  5.2730021146697394 17.7687241553127819   T   T   T
 -0.5534222569566888  5.2730021146697394 17.9839504728516673   T   T   T
 -8.9787527854682825 11.3325125146106345 17.7687241553127819   T   T   T
 -0.5534222569566887 11.3325125146106345 17.9839504728516673   T   T   T
  5.0166854439739836  0.7865082852711355  0.8568652484428830   T   T   T
 13.4420159724855814  0.7865082852711353  1.0720915659818582   T   T   T
  5.0166854439739836  6.8460186852120213  0.8568652484428830   T   T   T
 13.4420159724855814  6.8460186852120213  1.0720915659818584   T   T   T
 -1.1770131959679022  0.7865082852711353 10.0620469069485914   T   T   T
  7.2483173325436940  0.7865082852711355 10.2772732244875620   T   T   T
 -1.1770131959679024  6.8460186852120213 10.0620469069485914   T   T   T
  7.2483173325436940  6.8460186852120213 10.2772732244875620   T   T   T
 -0.0073828719847941  0.4862612166476782  7.8988715969374921   T   T   T
  8.4179476565267883  0.4862612166476782  8.1140979144764742   T   T   T
 -0.0073828719847941  6.5457716165885920  7.8988715969374921   T   T   T
  8.4179476565267883  6.5457716165885920  8.1140979144764742   T   T   T
 -6.2010815119266880  0.4862612166476782 17.1040532554431408   T   T   T
  2.2242490165849031  0.4862612166476782 17.3192795729820865   T   T   T
 -6.2010815119266880  6.5457716165885920 17.1040532554431408   T   T   T
  2.2242490165849031  6.5457716165885920 17.3192795729820865   T   T   T
  2.2390141704323687  5.5732491832932070  1.5215361483125034   T   T   T
 10.6643446989439354  5.5732491832932070  1.7367624658514771   T   T   T
  2.2390141704323687 11.6327595832340798  1.5215361483125034   T   T   T
 10.6643446989439354 11.6327595832340798  1.7367624658514771   T   T   T
 -3.9546844695095040  5.5732491832932070 10.7267178068181970   T   T   T
  4.4706460590020702  5.5732491832932070 10.9419441243571747   T   T   T
 -3.9546844695095040 11.6327595832340798 10.7267178068181970   T   T   T
  4.4706460590020702 11.6327595832340798 10.9419441243571747   T   T   T
  0.6052278268118265  1.3389333108952726  5.6691931375872757   T   T   T
  9.0305583553233930  1.3389333108952730  5.8844194551262605   T   T   T
  0.6052278268118266  7.3984437108361671  5.6691931375872748   T   T   T
  9.0305583553233930  7.3984437108361671  5.8844194551262605   T   T   T
 -5.5884708131300442  1.3389333108952730 14.8743747960929635   T   T   T
  2.8368597153815305  1.3389333108952726 15.0896011136319501   T   T   T
 -5.5884708131300442  7.3984437108361671 14.8743747960929635   T   T   T
  2.8368597153815300  7.3984437108361671 15.0896011136319483   T   T   T
  1.6264034716357492  4.7205770890456007  3.7512146076627277   T   T   T
 10.0517340001473343  4.7205770890456007  3.9664409252016997   T   T   T
  1.6264034716357492 10.7800874889864868  3.7512146076627277   T   T   T
 10.0517340001473343 10.7800874889864868  3.9664409252017001   T   T   T
 -4.5672951683061189  4.7205770890456007 12.9563962661684258   T   T   T
  3.8580353602054576  4.7205770890456007 13.1716225837073981   T   T   T
 -4.5672951683061198 10.7800874889864868 12.9563962661684258   T   T   T
  3.8580353602054576 10.7800874889864868 13.1716225837073981   T   T   T
