 C  H  O 
 1.0000000000000000
    22.3567561300000008   -0.0000040960000000    0.0966555280000000
    -0.0000032130000000   19.9475504219999991    0.0000018480000000
    -2.1961655859999998    0.0000026980000000   22.4475701659999984
 C   H   O  
 432 384 192
Cartesian
  1.6683337611315954  3.6907942939341085  0.7500675440891029
  8.9610012030404462  0.3661996189948128  4.9101530996720415
  8.4119598532623190  2.9583893661757004 10.5220459665221782
  1.1192920010581828  6.2829810552431073  6.3619602507499620
  2.7826278852834729  3.1576100637107634  0.0649890914377615
  7.8467054705768167  6.4821991530326155  5.5952315684251648
  7.2976651842701132  3.4915731119499904 11.2071239443576225
  2.2335873347406112  0.1669818078523283  5.6768814164078680
  3.3241439450421746  1.9233818895626915  0.4115245091602862
  7.3051899698202956  5.2479706445638463  5.2486963673687868
  6.7561495053561043  4.7258015986393307 10.8605889539271345
  2.7751029843749033  1.4012101531496017  6.0234168936060373
  2.7810901804029817  1.1981373056896223  1.4757826887578911
  7.8482446304365370  4.5227256427327811  4.1844389235266979
  7.2992035212469242  5.4510465251056335  9.7963311519330922
  2.2320490797554244  2.1264545326848481  7.0876752250999218
  1.6884550039143766  1.7081332353887397  2.1832079312809927
  8.9408800369184380  5.0327215296648129  3.4770140068363502
  8.3918389573191661  4.9410509102799427  9.0889061326349392
  1.1394138465993031  1.6164584678065170  7.7951002537934277
  1.1373018953857525  2.9324629931348785  1.8156545362032284
  9.4920325842818674  6.2570516539369319  3.8445670806204109
  8.9429922554575043  3.7167211552739241  9.4564595060959231
  0.5882608062611627  0.3921288001779032  7.4275465327557146
  0.9904282321015605  4.9820612256126005  0.4360102077040690
  9.6389066619347918  1.6574664938561752  5.2242106633720047
  9.0898652767849732  1.6671224161221152 10.8361032661509551
  0.4413869712573877  4.9917139495494665  6.0479027599842778
  3.1438071396934761  4.8784584144692573 10.4913725457467688
  6.3874441729014348  1.5538636582929521  6.3926304534072447
  6.9364857868935301  1.7707237980844330  0.7807385233372468
  3.6928482162925880  5.0953182289768018  4.8794803820488930
  3.6323508604809591  5.5439720693841696  9.2338170829671746
  5.8989030771788151  2.2193806526179798  7.6501851189985048
  6.4479436911656682  1.1052076465337810  2.0382932921631567
  4.1813917165043195  4.4298042385680505  3.6219248288991390
  0.5702509681315956  3.6907956429341087 11.9738526270891015
  7.8629184100404474  0.3662009679948128 16.1339381826720363
  7.3138770602623193  2.9583907151757001 21.7458310495221809
  0.0212092080581827  6.2829824042431071 17.5857453337499585
  1.6845450922834730  3.1576114127107635 11.2887741744377585
  6.7486226775768188  6.4822005020326152 16.8190166514251658
  6.1995823912701136  3.4915744609499906 22.4309090273576182
  1.1355045417406113  0.1669831568523283 16.9006664994078655
  2.2260611520421749  1.9233832385626912 11.6353095921602829
  6.2071071768202959  5.2479719935638451 16.4724814503687860
  5.6580667123561037  4.7258029476393295 22.0843740369271337
  1.6770201913749037  1.4012115021496017 17.2472019766060356
  1.6830073874029818  1.1981386546896220 12.6995677717578879
  6.7501618374365373  4.5227269917327799 15.4082240065266962
  6.2011207282469245  5.4510478741056332 21.0201162349330914
  1.1339662867554248  2.1264558816848482 18.3114603080999210
  0.5903722109143767  1.7081345843887394 13.4069930142809923
  7.8427972439184392  5.0327228786648126 14.7007990898363481
  7.2937561643191664  4.9410522592799415 20.3126912156349348
  0.0413310535993034  1.6164598168065167 19.0188853367934279
  0.0392191023857526  2.9324643421348791 13.0394396192032271
  8.3939497912818677  6.2570530029369325 15.0683521636204087
  7.8449094624575046  3.7167225042739243 20.6802445890959170
 -0.5098219867388372  0.3921301491779032 18.6513316157557156
 -0.1076545608984393  4.9820625746126010 11.6597952907040678
  8.5408238689347904  1.6574678428561749 16.4479957463720048
  7.9917824837849745  1.6671237651221147 22.0598883491509561
 -0.6566958217426123  4.9917152985494662 17.2716878429842744
  2.0457243466934756  4.8784597634692553 21.7151576287467662
  5.2893613799014352  1.5538650072929521 17.6164155364072421
  5.8384029938935305  1.7707251470844330 12.0045236063372442
  2.5947654232925883  5.0953195779768023 16.1032654650488887
  2.5342680674809595  5.5439734183841702 20.4576021659671738
  4.8008202841788155  2.2193820016179795 18.8739702019985032
  5.3498608981656686  1.1052089955337807 13.2620783751631546
  3.0833089235043203  4.4298055875680502 14.8457099118991369
  1.6683326901315954 10.3399777679341103  0.7500681600891029
  8.9610001320404464  7.0153830929948127  4.9101537156720418
  8.4119587822623192  9.6075728401757008 10.5220465825221776
  1.1192909300581830 12.9321645292431064  6.3619608667499632
  2.7826268142834731  9.8067935377107638  0.0649897074377615
  7.8467043995768169 13.1313826270326146  5.5952321844251660
  7.2976641132701134 10.1407565859499886 11.2071245603576237
  2.2335862637406114  6.8161652818523271  5.6768820324078684
  3.3241428740421748  8.5725653635626884  0.4115251251602862
  7.3051888988202958 11.8971541185638436  5.2486969833687871
  6.7561484343561053 11.3749850726393298 10.8605895699271358
  2.7751019133749040  8.0503936271496030  6.0234175096060385
  2.7810891094029819  7.8473207796896212  1.4757833047578910
  7.8482435594365372 11.1719091167327793  4.1844395395266973
  7.2992024502469244 12.1002299991056308  9.7963317679330917
  2.2320480087554246  8.7756380066848472  7.0876758410999212
  1.6884539329143766  8.3573167093887371  2.1832085472809921
  8.9408789659184382 11.6819050036648147  3.4770146228363497
  8.3918378863191663 11.5902343842799418  9.0889067486349369
  1.1394127755993035  8.2656419418065159  7.7951008697934281
  1.1373008243857525  9.5816464671348793  1.8156551522032283
  9.4920315132818676 12.9062351279369327  3.8445676966204108
  8.9429911844575045 10.3659046292739259  9.4564601220959226
  0.5882597352611625  7.0413122741779022  7.4275471487557150
  0.9904271611015605 11.6312446996126013  0.4360108237040690
  9.6389055909347920  8.3066499678561723  5.2242112793720041
  9.0898642057849734  8.3163058901221163 10.8361038821509563
  0.4413859002573877 11.6408974235494647  6.0479033759842773
  3.1438060686934763 11.5276418884692546 10.4913731617467683
  6.3874431019014350  8.2030471322929532  6.3926310694072450
  6.9364847158935303  8.4199072720844317  0.7807391393372468
  3.6928471452925882 11.7445017029768017  4.8794809980488933
  3.6323497894809593 12.1931555433841687  9.2338176989671741
  5.8989020061788153  8.8685641266179793  7.6501857349985043
  6.4479426201656693  7.7543911205337803  2.0382939081631570
  4.1813906455043197 11.0789877125680487  3.6219254448991394
  0.5702498971315956 10.3399791169341064 11.9738532430891009
  7.8629173390404477  7.0153844419948115 16.1339387986720375
  7.3138759892623195  9.6075741891756987 21.7458316655221751
  0.0212081370581829 12.9321658782431044 17.5857459497499633
  1.6845440212834728  9.8067948867107635 11.2887747904377598
  6.7486216065768172 13.1313839760326143 16.8190172674251635
  6.1995813202701138 10.1407579349499901 22.4309096433576229
  1.1355034707406111  6.8161666308523277 16.9006671154078667
  2.2260600810421742  8.5725667125626899 11.6353102081602824
  6.2071061058202961 11.8971554675638433 16.4724820663687801
  5.6580656413561048 11.3749864216393295 22.0843746529271350
  1.6770191203749034  8.0503949761496010 17.2472025926060368
  1.6830063164029820  7.8473221286896209 12.6995683877578891
  6.7501607664365357 11.1719104657327790 15.4082246225266957
  6.2011196572469247 12.1002313481056305 21.0201168509330891
  1.1339652157554252  8.7756393556848469 18.3114609240999187
  0.5903711399143767  8.3573180583887368 13.4069936302809918
  7.8427961729184394 11.6819063526648126 14.7007997058363475
  7.2937550933191666 11.5902357332799433 20.3126918316349361
  0.0413299825993033  8.2656432908065174 19.0188859527934220
  0.0392180313857526  9.5816478161348773 13.0394402352032248
  8.3939487202818679 12.9062364769369271 15.0683527796204082
  7.8449083914575057 10.3659059782739238 20.6802452050959218
 -0.5098230577388372  7.0413136231779019 18.6513322317557133
 -0.1076556318984393 11.6312460486126010 11.6597959067040655
  8.5408227979347906  8.3066513168561738 16.4479963623720025
  7.9917814127849747  8.3163072391221160 22.0598889651509538
 -0.6566968927426122 11.6408987725494626 17.2716884589842721
  2.0457232756934758 11.5276432374692579 21.7151582447467639
  5.2893603089014354  8.2030484812929529 17.6164161524072433
  5.8384019228935307  8.4199086210844314 12.0045242223372437
  2.5947643522925881 11.7445030519768014 16.1032660810488935
  2.5342669964809597 12.1931568923841684 20.4576027819671715
  4.8008192131788157  8.8685654756179755 18.8739708179985008
  5.3498598271656697  7.7543924695337809 13.2620789911631540
  3.0833078525043196 11.0789890615680484 14.8457105278991364
  1.6683316191315953 16.9891612419341058  0.7500687760891028
  8.9609990610404466 13.6645665669948109  4.9101543316720413
  8.4119577112623194 16.2567563141756963 10.5220471985221788
  1.1192898590581828 19.5813480032431073  6.3619614827499626
  2.7826257432834729 16.4559770117107611  0.0649903234377615
  7.8467033285768171 19.7805661010326084  5.5952328004251646
  7.2976630422701154 16.7899400599499877 11.2071251763576250
  2.2335851927406112 13.4653487558523288  5.6768826484078678
  3.3241418030421741 15.2217488375626893  0.4115257411602862
  7.3051878278202960 18.5463375925638445  5.2486975993687865
  6.7561473633561056 18.0241685466393271 10.8605901859271352
  2.7751008423749033 14.6995771011496021  6.0234181256060380
  2.7810880384029817 14.4965042536896220  1.4757839207578909
  7.8482424884365374 17.8210925907327749  4.1844401555266977
  7.2992013792469246 18.7494134731056370  9.7963323839330911
  2.2320469377554248 15.4248214806848480  7.0876764570999216
  1.6884528619143766 15.0065001833887379  2.1832091632809920
  8.9408778949184384 18.3310884776648102  3.4770152388363496
  8.3918368153191665 18.2394178582799427  9.0889073646349381
  1.1394117045993031 14.9148254158065150  7.7951014857934284
  1.1372997533857525 16.2308299411348820  1.8156557682032284
  9.4920304422818678 19.5554186019369283  3.8445683126204102
  8.9429901134575047 17.0150881032739250  9.4564607380959220
  0.5882586642611627 13.6904957481779022  7.4275477647557153
  0.9904260901015605 18.2804281736126022  0.4360114397040690
  9.6389045199347905 14.9558334418561731  5.2242118953720036
  9.0898631347849737 14.9654893641221136 10.8361044981509576
  0.4413848292573877 18.2900808975494691  6.0479039919842776
  3.1438049976934752 18.1768253624692555 10.4913737777467713
  6.3874420309014361 14.8522306062929541  6.3926316854072436
  6.9364836448935305 15.0690907460844326  0.7807397553372468
  3.6928460742925875 18.3936851769768062  4.8794816140488928
  3.6323487184809595 18.8423390173841696  9.2338183149671735
  5.8989009351788155 15.5177476006179749  7.6501863509985046
  6.4479415491656695 14.4035745945337794  2.0382945241631569
  4.1813895745043199 17.7281711865680478  3.6219260608991393
  0.5702488261315956 16.9891625909341037 11.9738538590891022
  7.8629162680404452 13.6645679159948106 16.1339394146720423
  7.3138749182623179 16.2567576631756943 21.7458322815221763
  0.0212070660581828 19.5813493522431052 17.5857465657499610
  1.6845429502834728 16.4559783607107626 11.2887754064377610
  6.7486205355768174 19.7805674500326134 16.8190178834251647
  6.1995802492701140 16.7899414089499857 22.4309102593576206
  1.1355023997406113 13.4653501048523285 16.9006677314078679
  2.2260590100421744 15.2217501865626907 11.6353108241602854
  6.2071050348202954 18.5463389415638424 16.4724826823687849
  5.6580645703561050 18.0241698956393286 22.0843752689271327
  1.6770180493749036 14.6995784501496018 17.2472032086060345
  1.6830052454029816 14.4965056026896200 12.6995690037578903
  6.7501596954365359 17.8210939397327763 15.4082252385266951
  6.2011185862469249 18.7494148221056314 21.0201174669330904
  1.1339641447554250 15.4248228296848460 18.3114615400999199
  0.5903700689143767 15.0065015323887359 13.4069942462809912
  7.8427951019184370 18.3310898266648117 14.7008003218363505
  7.2937540223191668 18.2394192072799441 20.3126924476349338
  0.0413289115993032 14.9148267648065147 19.0188865687934232
  0.0392169603857526 16.2308312901348764 13.0394408512032278
  8.3939476492818681 19.5554199509369298 15.0683533956204112
  7.8449073204575042 17.0150894522739229 20.6802458210959230
 -0.5098241287388374 13.6904970971779036 18.6513328477557110
 -0.1076567028984394 18.2804295226126037 11.6597965227040685
  8.5408217269347908 14.9558347908561746 16.4479969783720037
  7.9917803417849731 14.9654907131221133 22.0598895811509550
 -0.6566979637426124 18.2900822465494670 17.2716890749842769
  2.0457222046934760 18.1768267114692570 21.7151588607467652
  5.2893592379014365 14.8522319552929503 17.6164167684072446
  5.8384008518935309 15.0690920950844323 12.0045248383372467
  2.5947632812925883 18.3936865259768005 16.1032666970488947
  2.5342659254809590 18.8423403663841675 20.4576033979671728
  4.8008181421788150 15.5177489496179764 18.8739714339985021
  5.3498587561656681 14.4035759435337791 13.2620796071631553
  3.0833067815043194 17.7281725355680528 14.8457111438991394
 12.8467118261315960  3.6907922459341087  0.7983953080891031
 20.1393792680404466  0.3661975709948128  4.9584808636720412
 19.5903379182623212  2.9583873181757006 10.5703737305221779
 12.2976700660581830  6.2829790072431067  6.4102880147499626
 13.9610059502834734  3.1576080157107631  0.1133168554377615
 19.0250835355768189  6.4821971050326157  5.6435593324251654
 18.4760432492701128  3.4915710639499902 11.2554517083576240
 13.4119653997406125  0.1669797598523283  5.7252091804078686
 14.5025220100421741  1.9233798415626915  0.4598522731602862
 18.4835680348202942  5.2479685965638465  5.2970241313687865
 17.9345275703561029  4.7257995506393309 10.9089167179271360
 13.9534810493749042  1.4012081051496017  6.0717446576060379
 13.9594682454029826  1.1981352576896223  1.5241104527578910
 19.0266226954365365  4.5227235947327813  4.2327666875266976
 18.4775815862469237  5.4510444771056337  9.8446589159330919
 13.4104271447554257  2.1264524846848483  7.1360029890999215
 12.8668330689143779  1.7081311873887395  2.2315356952809928
 20.1192581019184402  5.0327194816648131  3.5253417708363499
 19.5702170223191665  4.9410488622799429  9.1372338966349389
 12.3177919115993042  1.6164564198065168  7.8434280177934284
 12.3156799603857525  2.9324609451348782  1.8639823002032283
 20.6704106492818696  6.2570496059369312  3.8928948446204110
 20.1213703204575047  3.7167191072739243  9.5047872700959228
 11.7666388712611631  0.3921267521779033  7.4758742967557152
 12.1688062971015611  4.9820591776126006  0.4843379717040689
 20.8172847269347905  1.6574644458561751  5.2725384273720035
 20.2682433417849737  1.6671203681221152 10.8844310301509548
 11.6197650362573874  4.9917119015494666  6.0962305239842776
 14.3221852046934757  4.8784563664692566 10.5397003097467685
 17.5658222379014362  1.5538616102929521  6.4409582174072435
 18.1148638518935314  1.7707217500844326  0.8290662873372469
 14.8712262812925893  5.0953161809768028  4.9278081460488927
 14.8107289254809604  5.5439700213841707  9.2821448469671743
 17.0772811421788155  2.2193786046179795  7.6985128829985046
 17.6263217561656695  1.1052055985337810  2.0866210561631569
 15.3597697815043190  4.4298021905680516  3.6702525928991401
 11.7486290331315963  3.6907935949341084 12.0221803910891012
 19.0412964750404470  0.3661989199948128 16.1822659466720395
 18.4922551252623180  2.9583886671757003 21.7941588135221771
 11.1995872730581834  6.2829803562431064 17.6340730977499618
 12.8629231572834737  3.1576093647107633 11.3371019384377583
 17.9270007425768192  6.4821984540326154 16.8673444154251655
 17.3779604562701167  3.4915724129499903 22.4792367913576179
 12.3138826067406129  0.1669811088523283 16.9489942634078652
 13.4044392170421744  1.9233811905626912 11.6836373561602826
 17.3854852418202981  5.2479699455638462 16.5208092143687857
 16.8364447773561068  4.7258008996393297 22.1327018009271335
 12.8553982563749045  1.4012094541496016 17.2955297406060353
 12.8613854524029829  1.1981366066896220 12.7478955357578876
 17.9285399024365368  4.5227249437327810 15.4565517705266959
 17.3794987932469240  5.4510458261056334 21.0684439989330912
 12.3123443517554261  2.1264538336848480 18.3597880720999171
 11.7687502759143783  1.7081325363887394 13.4553207782809920
 19.0211753089184370  5.0327208306648128 14.7491268538363478
 18.4721342293191668  4.9410502112799417 20.3610189796349346
 11.2197091185993045  1.6164577688065165 19.0672131007934276
 11.2175971673857529  2.9324622941348784 13.0877673832032269
 19.5723278562818663  6.2570509549369318 15.1166799276204085
 19.0232875274575051  3.7167204562739240 20.7285723530959167
 10.6685560782611635  0.3921281011779033 18.6996593797557153
 11.0707235041015615  4.9820605266126012 11.7081230547040658
 19.7192019339347908  1.6574657948561748 16.4963235103720045
 19.1701605487849740  1.6671217171221147 22.1082161131509558
 10.5216822432573878  4.9917132505494664 17.3200156069842741
 13.2241024116934760  4.8784577154692563 21.7634853927467660
 16.4677394449014365  1.5538629592929520 17.6647433004072418
 17.0167810588935318  1.7707230990844325 12.0528513703372440
 13.7731434882925932  5.0953175299768025 16.1515932290488884
 13.7126461324809608  5.5439713703841704 20.5059299299671736
 15.9791983491788177  2.2193799536179792 18.9222979659984993
 16.5282389631656699  1.1052069475337807 13.3104061391631543
 14.2616869885043194  4.4298035395680504 14.8940376758991366
 12.8467107551315962 10.3399757199341078  0.7983959240891031
 20.1393781970404468  7.0153810449948129  4.9584814796720416
 19.5903368472623214  9.6075707921757001 10.5703743465221791
 12.2976689950581832 12.9321624812431075  6.4102886307499620
 13.9610048792834736  9.8067914897107649  0.1133174714377615
 19.0250824645768191 13.1313805790326175  5.6435599484251648
 18.4760421782701130 10.1407545379499879 11.2554523243576234
 13.4119643287406127  6.8161632338523273  5.7252097964078681
 14.5025209390421743  8.5725633155626895  0.4598528891602862
 18.4835669638202944 11.8971520705638429  5.2970247473687868
 17.9345264993561031 11.3749830246393291 10.9089173339271355
 13.9534799783749044  8.0503915791496006  6.0717452736060373
 13.9594671744029828  7.8473187316896214  1.5241110687578909
 19.0266216244365367 11.1719070687327804  4.2327673035266979
 18.4775805152469239 12.1002279511056337  9.8446595319330914
 13.4104260737554259  8.7756359586848500  7.1360036050999218
 12.8668319979143764  8.3573146613887381  2.2315363112809927
 20.1192570309184404 11.6819029556648140  3.5253423868363503
 19.5702159513191667 11.5902323362799446  9.1372345126349366
 12.3177908405993044  8.2656398938065170  7.8434286337934278
 12.3156788893857527  9.5816444191348804  1.8639829162032282
 20.6704095782818698 12.9062330799369303  3.8928954606204109
 20.1213692494575049 10.3659025812739252  9.5047878860959223
 11.7666378002611633  7.0413102261779015  7.4758749127557147
 12.1688052261015613 11.6312426516126006  0.4843385877040691
 20.8172836559347907  8.3066479198561733  5.2725390433720047
 20.2682422707849739  8.3163038421221156 10.8844316461509560
 11.6197639652573876 11.6408953755494657  6.0962311399842779
 14.3221841336934759 11.5276398404692575 10.5397009257467680
 17.5658211669014364  8.2030450842929525  6.4409588334072447
 18.1148627808935316  8.4199052240844328  0.8290669033372469
 14.8712252102925895 11.7444996549768010  4.9278087620488931
 14.8107278544809606 12.1931534953841716  9.2821454629671738
 17.0772800711788157  8.8685620786179769  7.6985134989985049
 17.6263206851656697  7.7543890725337805  2.0866216721631567
 15.3597687105043192 11.0789856645680498  3.6702532088991391
 11.7486279621315965 10.3399770689341075 12.0221810070890989
 19.0412954040404472  7.0153823939948126 16.1822665626720372
 18.4922540542623182  9.6075721411756998 21.7941594295221748
 11.1995862020581818 12.9321638302431072 17.6340737137499630
 12.8629220862834739  9.8067928387107628 11.3371025544377595
 17.9269996715768194 13.1313819280326136 16.8673450314251632
 17.3779593852701169 10.1407558869499894 22.4792374073576227
 12.3138815357406131  6.8161645828523278 16.9489948794078664
 13.4044381460421747  8.5725646645626910 11.6836379721602821
 17.3854841708202983 11.8971534195638426 16.5208098303687798
 16.8364437063561070 11.3749843736393288 22.1327024169271347
 12.8553971853749047  8.0503929281496003 17.2955303566060365
 12.8613843814029831  7.8473200806896211 12.7478961517578888
 17.9285388314365370 11.1719084177327801 15.4565523865266954
 17.3794977222469242 12.1002293001056316 21.0684446149330888
 12.3123432807554263  8.7756373076848462 18.3597886880999184
 11.7687492049143767  8.3573160103887361 13.4553213942809915
 19.0211742379184372 11.6819043046648119 14.7491274698363473
 18.4721331583191670 11.5902336852799408 20.3610195956349322
 11.2197080475993047  8.2656412428065167 19.0672137167934252
 11.2175960963857531  9.5816457681348766 13.0877679992032245
 19.5723267852818665 12.9062344289369300 15.1166805436204079
 19.0232864564575053 10.3659039302739231 20.7285729690959215
 10.6685550072611637  7.0413115751779030 18.6996599957557130
 11.0707224331015617 11.6312440006126003 11.7081236707040652
 19.7192008629347910  8.3066492688561748 16.4963241263719986
 19.1701594777849742  8.3163051911221135 22.1082167291509535
 10.5216811722573880 11.6408967245494619 17.3200162229842718
 13.2241013406934762 11.5276411894692554 21.7634860087467672
 16.4677383739014367  8.2030464332929505 17.6647439164072395
 17.0167799878935320  8.4199065730844325 12.0528519863372434
 13.7731424172925934 11.7445010039768007 16.1515938450488896
 13.7126450614809610 12.1931548443841677 20.5059305459671712
 15.9791972781788179  8.8685634276179766 18.9222985819985041
 16.5282378921656701  7.7543904215337802 13.3104067551631537
 14.2616859175043196 11.0789870135680495 14.8940382918991379
 12.8467096841315964 16.9891591939341069  0.7983965400891029
 20.1393771260404471 13.6645645189948119  4.9584820956720419
 19.5903357762623216 16.2567542661756974 10.5703749625221803
 12.2976679240581834 19.5813459552431084  6.4102892467499633
 13.9610038082834738 16.4559749637107657  0.1133180874377615
 19.0250813935768193 19.7805640530326130  5.6435605644251661
 18.4760411072701132 16.7899380119499888 11.2554529403576229
 13.4119632577406129 13.4653467078523281  5.7252104124078684
 14.5025198680421745 15.2217467895626903  0.4598535051602862
 18.4835658928202946 18.5463355445638456  5.2970253633687863
 17.9345254283561033 18.0241664986393246 10.9089179499271349
 13.9534789073749046 14.6995750531496032  6.0717458896060386
 13.9594661034029830 14.4965022056896231  1.5241116847578910
 19.0266205534365369 17.8210905427327759  4.2327679195266983
 18.4775794442469241 18.7494114251056345  9.8446601479330909
 13.4104250027554261 15.4248194326848473  7.1360042210999213
 12.8668309269143766 15.0064981353887390  2.2315369272809926
 20.1192559599184406 18.3310864296648113  3.5253430028363502
 19.5702148803191669 18.2394158102799437  9.1372351286349378
 12.3177897695993046 14.9148233678065161  7.8434292497934281
 12.3156778183857529 16.2308278931348795  1.8639835322032283
 20.6704085072818700 19.5554165539369293  3.8928960766204108
 20.1213681784575051 17.0150860552739260  9.5047885020959235
 11.7666367292611636 13.6904937001779050  7.4758755287557159
 12.1688041551015615 18.2804261256125997  0.4843392037040690
 20.8172825849347909 14.9558313938561742  5.2725396593720042
 20.2682411997849741 14.9654873161221165 10.8844322621509555
 11.6197628942573878 18.2900788495494666  6.0962317559842774
 14.3221830626934761 18.1768233144692566 10.5397015417467710
 17.5658200959014366 14.8522285582929534  6.4409594494072451
 18.1148617098935318 15.0690886980844336  0.8290675193372469
 14.8712241392925897 18.3936831289768072  4.9278093780488934
 14.8107267834809608 18.8423369693841742  9.2821460789671750
 17.0772790001788159 15.5177455526179777  7.6985141149985044
 17.6263196141656699 14.4035725465337805  2.0866222881631571
 15.3597676395043194 17.7281691385680524  3.6702538248991394
 11.7486268911315968 16.9891605429341084 12.0221816230891019
 19.0412943330404474 13.6645658679948117 16.1822671786720420
 18.4922529832623184 16.2567556151756989 21.7941600455221760
 11.1995851310581820 19.5813473042431063 17.6340743297499642
 12.8629210152834723 16.4559763127107637 11.3371031704377607
 17.9269986005768196 19.7805654020326145 16.8673456474251644
 17.3779583142701171 16.7899393609499867 22.4792380233576203
 12.3138804647406133 13.4653480568523278 16.9489954954078677
 13.4044370750421749 15.2217481385626918 11.6836385881602851
 17.3854830998202985 18.5463368935638435 16.5208104463687846
 16.8364426353561072 18.0241678476393261 22.1327030329271359
 12.8553961143749049 14.6995764021496029 17.2955309726060342
 12.8613833104029833 14.4965035546896228 12.7478967677578900
 17.9285377604365372 17.8210918917327774 15.4565530025266948
 17.3794966512469244 18.7494127741056325 21.0684452309330901
 12.3123422097554265 15.4248207816848470 18.3597893040999196
 11.7687481339143769 15.0064994843887387 13.4553220102809910
 19.0211731669184374 18.3310877786648128 14.7491280858363467
 18.4721320873191672 18.2394171592799452 20.3610202116349370
 11.2197069765993049 14.9148247168065176 19.0672143327934229
 11.2175950253857533 16.2308292421348774 13.0877686152032275
 19.5723257142818667 19.5554179029369344 15.1166811596204109
 19.0232853854575055 17.0150874042739240 20.7285735850959227
 10.6685539362611639 13.6904950491779047 18.6996606117557107
 11.0707213621015619 18.2804274746126012 11.7081242867040682
 19.7191997919347912 14.9558327428561739 16.4963247423720034
 19.1701584067849744 14.9654886651221162 22.1082173451509547
 10.5216801012573882 18.2900801985494681 17.3200168389842766
 13.2241002696934764 18.1768246634692545 21.7634866247467649
 16.4677373029014369 14.8522299072929531 17.6647445324072443
 17.0167789168935322 15.0690900470844316 12.0528526023372464
 13.7731413462925918 18.3936844779768016 16.1515944610488944
 13.7126439904809612 18.8423383183841686 20.5059311619671725
 15.9791962071788181 15.5177469016179792 18.9222991979985018
 16.5282368211656703 14.4035738955337802 13.3104073711631550
 14.2616848465043198 17.7281704875680539 14.8940389078991391
  3.0736548546128595  1.5486499038937174 11.0759726411818011
  6.4575957228314742  4.8732375201705249  5.8080326071772657
  7.0066381385763767  5.1005331910874787  0.1961403249453356
  3.6226967296522590  1.7759436657766916  5.4640800276864177
  3.2099102240228965  0.2411042178323186  1.7434551744370375
  7.4194248759207548  3.5656924451967993  3.9167664437801015
  6.8703834163140609  6.4080794913396950  9.5286586257683439
  2.6608691903218609  3.0834875795814969  7.3553479525244834
  1.2631386291795119  1.1562465219882525  3.0097825519610137
  9.3661969135789178  4.4808347748375601  2.6504396488832636
  8.8171556058402114  5.4929377922494877  8.2623317369921736
  0.7140973619393783  2.1683451108892009  8.6216747896463968
  0.2811322610305877  3.3215803367753960  2.3474286276982750
 10.3482000680853492 19.9445362138329898  3.3127943073524198
  9.7991620545305391  3.3276038804533736  8.9246854051895284
 -0.2679100114732528  6.6521948671443507  7.9593210436674457
  4.2059180814705428  6.4300143767168878  9.4978168608467737
  5.3253275484476816  3.1054172721795621  7.3861841983884844
  5.8743695761751527  0.2191701370453978  1.7742922746523970
  4.7549584889522016  3.5437616001588430  3.8859246674850296
  2.7851269922372435  5.8072752825386305  8.6005288717507700
  6.7461298271230818  2.4826944829283160  8.2834653714777247
  7.2951697499559138  0.8418956019401836  2.6715752132562951
  3.3341677759698323  4.1665014580794226  2.9886365502470258
  4.2603252732835450  4.8555633692073528  8.6636475175278598
  5.2709386606364825  1.5309705906587396  8.2203639003713267
  5.8199773809213031  1.7936177390023040  2.6084701165397761
  4.8093665661973910  5.1182126126572802  3.0517554267542666
 -0.1818348535292552  6.4846745617688084 10.4665705977933428
  9.7130868328614213  3.1600783667276495  6.4174355479760248
 10.2621281917326748  0.1645091577575842  0.8055429406165722
  0.3672074198126274  3.4891020399926496  4.8546778098976073
  1.9755720616128589  1.5486512528937173 22.2997577241817986
  5.3595129298314745  4.8732388691705237 17.0318176901772631
  5.9085553455763771  5.1005345400874766 11.4199254079453336
  2.5246139366522580  1.7759450147766918 16.6878651106864169
  2.1118274310228968  0.2411055668323187 12.9672402574370373
  6.3213420829207552  3.5656937941968003 15.1405515267800990
  5.7723006233140612  6.4080808403396929 20.7524437087683431
  1.5627863973218614  3.0834889285814970 18.5791330355244817
  0.1650558361795124  1.1562478709882524 14.2335676349610125
  8.2681141205789181  4.4808361238375589 13.8742247318832597
  7.7190728128402109  5.4929391412494875 19.4861168199921728
 -0.3839854310606215  2.1683464598892006 19.8454598726463942
 -0.8169505319694123  3.3215816857753957 13.5712137106982738
  9.2501172750853495 19.9445375628329877 14.5365793903524185
  8.7010792615305395  3.3276052294533747 20.1484704881895311
 -1.3659928044732528  6.6521962161443504 19.1831061266674432
  3.1078352884705431  6.4300157257168884 20.7216019438467711
  4.2272447554476820  3.1054186211795622 18.6099692813884836
  4.7762867831751530  0.2191714860453978 12.9980773576523969
  3.6568756959522020  3.5437629491588427 15.1097097504850275
  1.6870441992372436  5.8072766315386302 19.8243139547507710
  5.6480470341230822  2.4826958319283166 19.5072504544777203
  6.1970869569559142  0.8418969509401837 13.8953602962562925