 H  C  N 
 1.0000000000000000
    25.0000000000000000    0.0000000000000000    0.0000000000000000
     0.0000000000000000   25.0000000000000000    0.0000000000000000
     0.0000000000000000    0.0000000000000000   25.0000000000000000
 H   C   N  
  12   6   4
Cartesian
 10.0773873362558852  7.3006466445127369  6.7887025483920587
  8.6261028753250244  6.7875392071740732  5.8999837661973249
  6.6480757186288848  6.0881955845038762  7.1112850063889637
  6.6480832097290881  6.0881951555934837  8.8887345563851934
 10.0773975464973518  7.3006460595835110  9.2112886933591742
  8.6261205767672902  6.7875381933788512 10.1000194610279728
  6.6480674858161821  8.1862170214040191  5.8999924403117143
  6.6480689365202634  9.7255332710559319  6.7887175869199465
 10.0773893135516239  9.3986674963135268  7.9999961274583749
  8.6261063034752485 10.4248763090565735  8.0000024916347634
  6.6480851873118496  8.1862160076132167 10.1000281355123747
  6.6480791466313720  9.7255326861758089  9.2113037318668756
  8.9855586957759304  7.3030262289837298  6.7928315329964466
  7.0142666063375128  6.6060638305445032  8.0000083630480479
  8.9855688712006074  7.3030256461826104  9.2071689132012065
  7.0142584015120031  8.6969416265473676  6.7928401776693148
  8.9855606663338072  9.3939034422001733  8.0000007278602006
  7.0142685769635227  8.6969410437260528  9.2071775579469382
  8.5066422739458467  6.5667454118425352  8.0000020638321541
  8.5066338376419779  8.7166041814217259  6.7587812164571872
  6.4797341336547056  7.9999813700294657  8.0000109524014693
  8.5066443001217458  8.7166035821561998  9.2412239491311468
