 C  H  O 
        1.0000000000
  18.640000000000001   0.000000000000000   0.000000000000000
  -9.320000000000000  16.142720000000001   0.000000000000000
   0.000000000000000   0.000000000000000  16.391999999999999
  144  288  144
 Direct
   0.068509102906203   0.076984497913444   0.491737776121853
   0.568509102906203   0.076984497913444   0.491737776121853
   0.068509102906203   0.576984497913444   0.491737776121853
   0.568509102906203   0.576984497913444   0.491737776121853
   0.068509102906203   0.076984497913444   0.991737776121853
   0.568509102906203   0.076984497913444   0.991737776121853
   0.068509102906203   0.576984497913444   0.991737776121853
   0.568509102906203   0.576984497913444   0.991737776121853
   0.423016048925264   0.491461191277632   0.491737811197810
   0.923016048925264   0.491461191277632   0.491737811197810
   0.423016048925264   0.991461191277632   0.491737811197810
   0.923016048925264   0.991461191277632   0.491737811197810
   0.423016048925264   0.491461191277632   0.991737811197810
   0.923016048925264   0.491461191277632   0.991737811197810
   0.423016048925264   0.991461191277632   0.991737811197810
   0.923016048925264   0.991461191277632   0.991737811197810
   0.008539380153231   0.431491482273122   0.491737830951997
   0.508539380153231   0.431491482273122   0.491737830951997
   0.008539380153231   0.931491482273122   0.491737830951997
   0.508539380153231   0.931491482273122   0.491737830951997
   0.008539380153231   0.431491482273122   0.991737830951997
   0.508539380153231   0.431491482273122   0.991737830951997
   0.008539380153231   0.931491482273122   0.991737830951997
   0.508539380153231   0.931491482273122   0.991737830951997
   0.423015494152872   0.431490899980822   0.241737728107276
   0.923015494152872   0.431490899980822   0.241737728107276
   0.423015494152872   0.931490899980822   0.241737728107276
   0.923015494152872   0.931490899980822   0.241737728107276
   0.423015494152872   0.431490899980822   0.741737728107276
   0.923015494152872   0.431490899980822   0.741737728107276
   0.423015494152872   0.931490899980822   0.741737728107276
   0.923015494152872   0.931490899980822   0.741737728107276
   0.008538804441928   0.076983915363022   0.241737839824420
   0.508538804441928   0.076983915363022   0.241737839824420
   0.008538804441928   0.576983915363022   0.241737839824420
   0.508538804441928   0.576983915363022   0.241737839824420
   0.008538804441928   0.076983915363022   0.741737839824420
   0.508538804441928   0.076983915363022   0.741737839824420
   0.008538804441928   0.576983915363022   0.741737839824420
   0.508538804441928   0.576983915363022   0.741737839824420
   0.068508550401340   0.491460626657252   0.241737849511064
   0.568508550401340   0.491460626657252   0.241737849511064
   0.068508550401340   0.991460626657252   0.241737849511064
   0.568508550401340   0.991460626657252   0.241737849511064
   0.068508550401340   0.491460626657252   0.741737849511064
   0.568508550401340   0.491460626657252   0.741737849511064
   0.068508550401340   0.991460626657252   0.741737849511064
   0.568508550401340   0.991460626657252   0.741737849511064
   0.401842598616374   0.243651113562997   0.158405127476999
   0.901842598616375   0.243651113562997   0.158405127476999
   0.401842598616374   0.743651113562997   0.158405127476999
   0.901842598616375   0.743651113562997   0.158405127476999
   0.401842598616374   0.243651113562997   0.658405127476999
   0.901842598616375   0.243651113562997   0.658405127476999
   0.401842598616374   0.743651113562997   0.658405127476999
   0.901842598616375   0.743651113562997   0.658405127476999
   0.256349475016223   0.158128142401818   0.158405141320304
   0.756349475016223   0.158128142401818   0.158405141320304
   0.256349475016223   0.658128142401818   0.158405141320304
   0.756349475016223   0.658128142401818   0.158405141320304
   0.256349475016223   0.158128142401818   0.658405141320304
   0.756349475016223   0.158128142401818   0.658405141320304
   0.256349475016223   0.658128142401818   0.658405141320304
   0.756349475016223   0.658128142401818   0.658405141320304
   0.341872471797387   0.098158065822296   0.158405470323501
   0.841872471797387   0.098158065822296   0.158405470323501
   0.341872471797387   0.598158065822296   0.158405470323501
   0.841872471797387   0.598158065822296   0.158405470323501
   0.341872471797387   0.098158065822296   0.658405470323501
   0.841872471797387   0.098158065822296   0.658405470323501
   0.341872471797387   0.598158065822296   0.658405470323501
   0.841872471797387   0.598158065822296   0.658405470323501
   0.256348877690521   0.098157403652724   0.408405080224811
   0.756348877690521   0.098157403652724   0.408405080224811
   0.256348877690521   0.598157403652724   0.408405080224811
   0.756348877690521   0.598157403652724   0.408405080224811
   0.256348877690521   0.098157403652724   0.908405080224811
   0.756348877690521   0.098157403652724   0.908405080224811
   0.256348877690521   0.598157403652724   0.908405080224811
   0.756348877690521   0.598157403652724   0.908405080224811
   0.341871853428073   0.243650489457972   0.408405170130923
   0.841871853428073   0.243650489457972   0.408405170130923
   0.341871853428073   0.743650489457972   0.408405170130923
   0.841871853428073   0.743650489457972   0.408405170130923
   0.341871853428073   0.243650489457972   0.908405170130923
   0.841871853428073   0.243650489457972   0.908405170130923
   0.341871853428073   0.743650489457972   0.908405170130923
   0.841871853428073   0.743650489457972   0.908405170130923
   0.401841966852833   0.158127534979404   0.408405489174725
   0.901841966852833   0.158127534979404   0.408405489174725
   0.401841966852833   0.658127534979404   0.408405489174725
   0.901841966852833   0.658127534979404   0.408405489174725
   0.401841966852833   0.158127534979404   0.908405489174725
   0.901841966852833   0.158127534979404   0.908405489174725
   0.401841966852833   0.658127534979404   0.908405489174725
   0.901841966852833   0.658127534979404   0.908405489174725
   0.235175666019921   0.410317797795758   0.325071146123359
   0.735175666019921   0.410317797795758   0.325071146123359
   0.235175666019921   0.910317797795757   0.325071146123359
   0.735175666019921   0.910317797795757   0.325071146123359
   0.235175666019921   0.410317797795758   0.825071146123359
   0.735175666019921   0.410317797795758   0.825071146123359
   0.235175666019921   0.910317797795757   0.825071146123359
   0.735175666019921   0.910317797795757   0.825071146123359
   0.089682640361244   0.324794432900395   0.325071323974844
   0.589682640361244   0.324794432900395   0.325071323974844
   0.089682640361244   0.824794432900395   0.325071323974844
   0.589682640361244   0.824794432900395   0.325071323974844
   0.089682640361244   0.324794432900395   0.825071323974844
   0.589682640361244   0.324794432900395   0.825071323974844
   0.089682640361244   0.824794432900395   0.825071323974844
   0.589682640361244   0.824794432900395   0.825071323974844
   0.175206045644608   0.264824800679311   0.325071332977009
   0.675206045644608   0.264824800679311   0.325071332977009
   0.175206045644608   0.764824800679311   0.325071332977009
   0.675206045644608   0.764824800679311   0.325071332977009
   0.175206045644608   0.264824800679311   0.825071332977009
   0.675206045644608   0.264824800679311   0.825071332977009
   0.175206045644608   0.764824800679311   0.825071332977009
   0.675206045644608   0.764824800679311   0.825071332977009
   0.089682192285014   0.264824335014052   0.075071098977298
   0.589682192285014   0.264824335014052   0.075071098977298
   0.089682192285014   0.764824335014052   0.075071098977298
   0.589682192285014   0.764824335014052   0.075071098977298
   0.089682192285014   0.264824335014052   0.575071098977298
   0.589682192285014   0.264824335014052   0.575071098977298
   0.089682192285014   0.764824335014052   0.575071098977298
   0.589682192285014   0.764824335014052   0.575071098977298
   0.175205563053087   0.410317326451335   0.075071353438170
   0.675205563053087   0.410317326451335   0.075071353438170
   0.175205563053087   0.910317326451335   0.075071353438170
   0.675205563053087   0.910317326451335   0.075071353438170
   0.175205563053087   0.410317326451335   0.575071353438170
   0.675205563053087   0.410317326451335   0.575071353438170
   0.175205563053087   0.910317326451335   0.575071353438170
   0.675205563053087   0.910317326451335   0.575071353438170
   0.235175233824100   0.324793961134960   0.075071352131411
   0.735175233824100   0.324793961134960   0.075071352131411
   0.235175233824100   0.824793961134960   0.075071352131411
   0.735175233824100   0.824793961134960   0.075071352131411
   0.235175233824100   0.324793961134960   0.575071352131411
   0.735175233824100   0.324793961134960   0.575071352131411
   0.235175233824100   0.824793961134960   0.575071352131411
   0.735175233824100   0.824793961134960   0.575071352131411
   0.069537731385861   0.078091008124416   0.424814916526119
   0.569537731385861   0.078091008124416   0.424814916526119
   0.069537731385861   0.578091008124416   0.424814916526119
   0.569537731385861   0.578091008124416   0.424814916526119
   0.069537731385861   0.078091008124416   0.924814916526119
   0.569537731385861   0.078091008124416   0.924814916526119
   0.069537731385861   0.578091008124416   0.924814916526119
   0.569537731385861   0.578091008124416   0.924814916526119
   0.421909514992212   0.491383285674505   0.424814955747648
   0.921909514992212   0.491383285674505   0.424814955747648
   0.421909514992212   0.991383285674505   0.424814955747648
   0.921909514992212   0.991383285674505   0.424814955747648
   0.421909514992212   0.491383285674505   0.924814955747648
   0.921909514992212   0.491383285674505   0.924814955747648
   0.421909514992212   0.991383285674505   0.924814955747648
   0.921909514992212   0.991383285674505   0.924814955747648
   0.008617271629517   0.430462814489264   0.424814979765771
   0.508617271629517   0.430462814489264   0.424814979765771
   0.008617271629517   0.930462814489264   0.424814979765771
   0.508617271629517   0.930462814489264   0.424814979765771
   0.008617271629517   0.430462814489264   0.924814979765771
   0.508617271629517   0.430462814489264   0.924814979765771
   0.008617271629517   0.930462814489264   0.924814979765771
   0.508617271629517   0.930462814489264   0.924814979765771
   0.421909015602550   0.430462300264335   0.174814869466157
   0.921909015602550   0.430462300264335   0.174814869466157
   0.421909015602550   0.930462300264336   0.174814869466157
   0.921909015602550   0.930462300264336   0.174814869466157
   0.421909015602550   0.430462300264335   0.674814869466157
   0.921909015602550   0.430462300264335   0.674814869466157
   0.421909015602550   0.930462300264336   0.674814869466157
   0.921909015602550   0.930462300264336   0.674814869466157
   0.008616744467915   0.078090484889813   0.174814982624809
   0.508616744467915   0.078090484889813   0.174814982624809
   0.008616744467915   0.578090484889813   0.174814982624809
   0.508616744467915   0.578090484889813   0.174814982624809
   0.008616744467915   0.078090484889813   0.674814982624809
   0.508616744467915   0.078090484889813   0.674814982624809
   0.008616744467915   0.578090484889813   0.674814982624809
   0.508616744467915   0.578090484889813   0.674814982624809
   0.069537247330663   0.491382766008568   0.174815000135808
   0.569537247330663   0.491382766008568   0.174815000135808
   0.069537247330663   0.991382766008568   0.174815000135808
   0.569537247330663   0.991382766008568   0.174815000135808
   0.069537247330663   0.491382766008568   0.674815000135808
   0.569537247330663   0.491382766008568   0.674815000135808
   0.069537247330663   0.991382766008568   0.674815000135808
   0.569537247330663   0.991382766008568   0.674815000135808
   0.402871310186659   0.244757541166851   0.091482267515657
   0.902871310186659   0.244757541166851   0.091482267515657
   0.402871310186659   0.744757541166851   0.091482267515657
   0.902871310186659   0.744757541166851   0.091482267515657
   0.402871310186659   0.244757541166851   0.591482267515657
   0.902871310186659   0.244757541166851   0.591482267515657
   0.402871310186659   0.744757541166851   0.591482267515657
   0.902871310186659   0.744757541166851   0.591482267515657
   0.255242897640494   0.158050054664971   0.091482279518454
   0.755242897640494   0.158050054664971   0.091482279518454
   0.255242897640494   0.658050054664971   0.091482279518454
   0.755242897640494   0.658050054664971   0.091482279518454
   0.255242897640494   0.158050054664971   0.591482279518454
   0.755242897640494   0.158050054664971   0.591482279518454
   0.255242897640494   0.658050054664971   0.591482279518454
   0.755242897640494   0.658050054664971   0.591482279518454
   0.341950383821182   0.097129286968733   0.091482616890187
   0.841950383821182   0.097129286968733   0.091482616890187
   0.341950383821182   0.597129286968733   0.091482616890187
   0.841950383821182   0.597129286968733   0.091482616890187
   0.341950383821182   0.097129286968733   0.591482616890187
   0.841950383821182   0.097129286968733   0.591482616890187
   0.341950383821182   0.597129286968733   0.591482616890187
   0.841950383821182   0.597129286968733   0.591482616890187
   0.255242482631951   0.097128721338382   0.341482220021677
   0.755242482631951   0.097128721338382   0.341482220021677
   0.255242482631951   0.597128721338382   0.341482220021677
   0.755242482631951   0.597128721338382   0.341482220021677
   0.255242482631951   0.097128721338382   0.841482220021677
   0.755242482631951   0.097128721338382   0.841482220021677
   0.255242482631951   0.597128721338382   0.841482220021677
   0.755242482631951   0.597128721338382   0.841482220021677
   0.341949975223065   0.244757102063989   0.341482306388051
   0.841949975223065   0.244757102063989   0.341482306388051
   0.341949975223065   0.744757102063989   0.341482306388051
   0.841949975223065   0.744757102063989   0.341482306388051
   0.341949975223065   0.244757102063989   0.841482306388051
   0.841949975223065   0.244757102063989   0.841482306388051
   0.341949975223065   0.744757102063989   0.841482306388051
   0.841949975223065   0.744757102063989   0.841482306388051
   0.402870774869469   0.158049653962557   0.341482637214263
   0.902870774869469   0.158049653962557   0.341482637214263
   0.402870774869469   0.658049653962557   0.341482637214263
   0.902870774869469   0.658049653962557   0.341482637214263
   0.402870774869469   0.158049653962557   0.841482637214263
   0.902870774869469   0.158049653962557   0.841482637214263
   0.402870774869469   0.658049653962557   0.841482637214263
   0.902870774869469   0.658049653962557   0.841482637214263
   0.236204187172344   0.411424239395744   0.258148283095372
   0.736204187172344   0.411424239395744   0.258148283095372
   0.236204187172344   0.911424239395744   0.258148283095372
   0.736204187172344   0.911424239395744   0.258148283095372
   0.236204187172344   0.411424239395744   0.758148283095372
   0.736204187172344   0.411424239395744   0.758148283095372
   0.236204187172344   0.911424239395744   0.758148283095372
   0.736204187172344   0.911424239395744   0.758148283095372
   0.088576023585760   0.324716452040650   0.258148466893350
   0.588576023585760   0.324716452040650   0.258148466893350
   0.088576023585760   0.824716452040650   0.258148466893350
   0.588576023585760   0.824716452040650   0.258148466893350
   0.088576023585760   0.324716452040650   0.758148466893350
   0.588576023585760   0.324716452040650   0.758148466893350
   0.088576023585760   0.824716452040650   0.758148466893350
   0.588576023585760   0.824716452040650   0.758148466893350
   0.175283931148480   0.263796075273442   0.258148474048687
   0.675283931148480   0.263796075273442   0.258148474048687
   0.175283931148480   0.763796075273442   0.258148474048687
   0.675283931148480   0.763796075273442   0.258148474048687
   0.175283931148480   0.263796075273442   0.758148474048687
   0.675283931148480   0.263796075273442   0.758148474048687
   0.175283931148480   0.763796075273442   0.758148474048687
   0.675283931148480   0.763796075273442   0.758148474048687
   0.088575784445245   0.263795844527870   0.008148235751675
   0.588575784445245   0.263795844527870   0.008148235751675
   0.088575784445245   0.763795844527870   0.008148235751675
   0.588575784445245   0.763795844527870   0.008148235751675
   0.088575784445245   0.263795844527870   0.508148235751675
   0.588575784445245   0.263795844527870   0.508148235751675
   0.088575784445245   0.763795844527870   0.508148235751675
   0.588575784445245   0.763795844527870   0.508148235751675
   0.175283578041717   0.411423976090844   0.008148493709152
   0.675283578041717   0.411423976090844   0.008148493709152
   0.175283578041717   0.911423976090844   0.008148493709152
   0.675283578041717   0.911423976090844   0.008148493709152
   0.175283578041717   0.411423976090844   0.508148493709152
   0.675283578041717   0.411423976090844   0.508148493709152
   0.175283578041717   0.911423976090844   0.508148493709152
   0.675283578041717   0.911423976090844   0.508148493709152
   0.236203986357262   0.324716106459593   0.008148494496942
   0.736203986357262   0.324716106459593   0.008148494496942
   0.236203986357262   0.824716106459593   0.008148494496942
   0.736203986357262   0.824716106459593   0.008148494496942
   0.236203986357262   0.324716106459593   0.508148494496942
   0.736203986357262   0.324716106459593   0.508148494496942
   0.236203986357262   0.824716106459593   0.508148494496942
   0.736203986357262   0.824716106459593   0.508148494496942
   0.118609821483736   0.133161310295138   0.018048191768012
   0.618609821483736   0.133161310295138   0.018048191768012
   0.118609821483736   0.633161310295138   0.018048191768012
   0.618609821483736   0.633161310295138   0.018048191768012
   0.118609821483736   0.133161310295138   0.518048191768012
   0.618609821483736   0.133161310295138   0.518048191768012
   0.118609821483736   0.633161310295138   0.518048191768012
   0.618609821483736   0.633161310295138   0.518048191768012
   0.366839224446878   0.485385092912474   0.018048263029457
   0.866839224446878   0.485385092912474   0.018048263029457
   0.366839224446878   0.985385092912474   0.018048263029457
   0.866839224446878   0.985385092912474   0.018048263029457
   0.366839224446878   0.485385092912474   0.518048263029457
   0.866839224446878   0.485385092912474   0.518048263029457
   0.366839224446878   0.985385092912474   0.518048263029457
   0.866839224446878   0.985385092912474   0.518048263029457
   0.014615516841165   0.381390806815630   0.018048317248207
   0.514615516841165   0.381390806815630   0.018048317248207
   0.014615516841165   0.881390806815630   0.018048317248207
   0.514615516841165   0.881390806815630   0.018048317248207
   0.014615516841165   0.381390806815630   0.518048317248207
   0.514615516841165   0.381390806815630   0.518048317248207
   0.014615516841165   0.881390806815630   0.518048317248207
   0.514615516841165   0.881390806815630   0.518048317248207
   0.366838655554517   0.381390175208012   0.268048113982460
   0.866838655554517   0.381390175208012   0.268048113982460
   0.366838655554517   0.881390175208012   0.268048113982460
   0.866838655554517   0.881390175208012   0.268048113982460
   0.366838655554517   0.381390175208012   0.768048113982460
   0.866838655554517   0.381390175208012   0.768048113982460
   0.366838655554517   0.881390175208012   0.768048113982460
   0.866838655554517   0.881390175208012   0.768048113982460
   0.014614881637000   0.133160704529144   0.268048311170675
   0.514614881637000   0.133160704529144   0.268048311170675
   0.014614881637000   0.633160704529144   0.268048311170675
   0.514614881637000   0.633160704529144   0.268048311170675
   0.014614881637000   0.133160704529144   0.768048311170675
   0.514614881637000   0.133160704529144   0.768048311170675
   0.014614881637000   0.633160704529144   0.768048311170675
   0.514614881637000   0.633160704529144   0.768048311170675
   0.118609236223685   0.485384488314675   0.268048347328936
   0.618609236223685   0.485384488314675   0.268048347328936
   0.118609236223685   0.985384488314675   0.268048347328936
   0.618609236223685   0.985384488314675   0.268048347328936
   0.118609236223685   0.485384488314675   0.768048347328936
   0.618609236223685   0.485384488314675   0.768048347328936
   0.118609236223685   0.985384488314675   0.768048347328936
   0.618609236223685   0.985384488314675   0.768048347328936
   0.451943371858062   0.299827897037178   0.184715521943240
   0.951943371858062   0.299827897037178   0.184715521943240
   0.451943371858062   0.799827897037178   0.184715521943240
   0.951943371858062   0.799827897037178   0.184715521943240
   0.451943371858062   0.299827897037178   0.684715521943240
   0.951943371858062   0.299827897037178   0.684715521943240
   0.451943371858062   0.799827897037178   0.684715521943240
   0.951943371858062   0.799827897037178   0.684715521943240
   0.200172721497675   0.152052264215606   0.184715547444466
   0.700172721497675   0.152052264215606   0.184715547444466
   0.200172721497675   0.652052264215606   0.184715547444466
   0.700172721497675   0.652052264215606   0.184715547444466
   0.200172721497675   0.152052264215606   0.684715547444466
   0.700172721497675   0.152052264215606   0.684715547444466
   0.200172721497675   0.652052264215606   0.684715547444466
   0.700172721497675   0.652052264215606   0.684715547444466
   0.347948462467812   0.048057354092226   0.184716059580088
   0.847948462467812   0.048057354092226   0.184716059580088
   0.347948462467812   0.548057354092226   0.184716059580088
   0.847948462467812   0.548057354092226   0.184716059580088
   0.347948462467812   0.048057354092226   0.684716059580088
   0.847948462467812   0.048057354092226   0.684716059580088
   0.347948462467812   0.548057354092226   0.684716059580088
   0.847948462467812   0.548057354092226   0.684716059580088
   0.200172069160603   0.048056625040901   0.434715443938037
   0.700172069160603   0.048056625040901   0.434715443938037
   0.200172069160603   0.548056625040901   0.434715443938037
   0.700172069160603   0.548056625040901   0.434715443938037
   0.200172069160603   0.048056625040901   0.934715443938037
   0.700172069160603   0.048056625040901   0.934715443938037
   0.200172069160603   0.548056625040901   0.934715443938037
   0.700172069160603   0.548056625040901   0.934715443938037
   0.347947710302878   0.299827207351037   0.434715595472637
   0.847947710302878   0.299827207351037   0.434715595472637
   0.347947710302878   0.799827207351037   0.434715595472637
   0.847947710302878   0.799827207351037   0.434715595472637
   0.347947710302878   0.299827207351037   0.934715595472637
   0.847947710302878   0.299827207351037   0.934715595472637
   0.347947710302878   0.799827207351037   0.934715595472637
   0.847947710302878   0.799827207351037   0.934715595472637
   0.451942688872316   0.152051542733588   0.434716089722615
   0.951942688872316   0.152051542733588   0.434716089722615
   0.451942688872316   0.652051542733588   0.434716089722615
   0.951942688872316   0.652051542733588   0.434716089722615
   0.451942688872316   0.152051542733588   0.934716089722615
   0.951942688872316   0.152051542733588   0.934716089722615
   0.451942688872316   0.652051542733588   0.934716089722615
   0.951942688872316   0.652051542733588   0.934716089722615
   0.285276384702474   0.466494672074928   0.351381470268056
   0.785276384702474   0.466494672074928   0.351381470268056
   0.285276384702474   0.966494672074928   0.351381470268056
   0.785276384702474   0.966494672074928   0.351381470268056
   0.285276384702474   0.466494672074928   0.851381470268056
   0.785276384702474   0.466494672074928   0.851381470268056
   0.285276384702474   0.966494672074928   0.851381470268056
   0.785276384702474   0.966494672074928   0.851381470268056
   0.033505805417562   0.318718288809793   0.351381811695325
   0.533505805417562   0.318718288809793   0.351381811695325
   0.033505805417562   0.818718288809793   0.351381811695325
   0.533505805417562   0.818718288809793   0.351381811695325
   0.033505805417562   0.318718288809793   0.851381811695325
   0.533505805417562   0.318718288809793   0.851381811695325
   0.033505805417562   0.818718288809793   0.851381811695325
   0.533505805417562   0.818718288809793   0.851381811695325
   0.181282259676194   0.214724187471491   0.351381849709160
   0.681282259676194   0.214724187471491   0.351381849709160
   0.181282259676194   0.714724187471491   0.351381849709160
   0.681282259676194   0.714724187471491   0.351381849709160
   0.181282259676194   0.214724187471491   0.851381849709160
   0.681282259676194   0.214724187471491   0.851381849709160
   0.181282259676194   0.714724187471491   0.851381849709160
   0.681282259676194   0.714724187471491   0.851381849709160
   0.033505294695138   0.214723612728528   0.101381392016201
   0.533505294695138   0.214723612728528   0.101381392016201
   0.033505294695138   0.714723612728527   0.101381392016201
   0.533505294695138   0.714723612728527   0.101381392016201
   0.033505294695138   0.214723612728528   0.601381392016201
   0.533505294695138   0.214723612728528   0.601381392016201
   0.033505294695138   0.714723612728527   0.601381392016201
   0.533505294695138   0.714723612728527   0.601381392016201
   0.181281685578147   0.466494122228770   0.101381859117282
   0.681281685578147   0.466494122228770   0.101381859117282
   0.181281685578147   0.966494122228770   0.101381859117282
   0.681281685578147   0.966494122228770   0.101381859117282
   0.181281685578147   0.466494122228770   0.601381859117282
   0.681281685578147   0.466494122228770   0.601381859117282
   0.181281685578147   0.966494122228770   0.601381859117282
   0.681281685578147   0.966494122228770   0.601381859117282
   0.285275854627445   0.318717745594511   0.101381879416138
   0.785275854627445   0.318717745594511   0.101381879416138
   0.285275854627445   0.818717745594511   0.101381879416138
   0.785275854627445   0.818717745594511   0.101381879416138
   0.285275854627445   0.318717745594511   0.601381879416138
   0.785275854627445   0.318717745594511   0.601381879416138
   0.285275854627445   0.818717745594511   0.601381879416138
   0.785275854627445   0.818717745594511   0.601381879416138
   0.077341827162051   0.008489919647805   0.020616369211789
   0.577341827162051   0.008489919647805   0.020616369211789
   0.077341827162051   0.508489919647805   0.020616369211789
   0.577341827162051   0.508489919647805   0.020616369211789
   0.077341827162051   0.008489919647805   0.520616369211789
   0.577341827162051   0.008489919647805   0.520616369211789
   0.077341827162051   0.508489919647805   0.520616369211789
   0.577341827162051   0.508489919647805   0.520616369211789
   0.491510651210752   0.068788495569908   0.020616352758392
   0.991510651210752   0.068788495569908   0.020616352758392
   0.491510651210752   0.568788495569908   0.020616352758392
   0.991510651210752   0.568788495569908   0.020616352758392
   0.491510651210752   0.068788495569908   0.520616352758392
   0.991510651210752   0.068788495569908   0.520616352758392
   0.491510651210752   0.568788495569908   0.520616352758392
   0.991510651210752   0.568788495569908   0.520616352758392
   0.431212054918019   0.422658766210038   0.020616376269096
   0.931212054918019   0.422658766210038   0.020616376269096
   0.431212054918019   0.922658766210038   0.020616376269096
   0.931212054918019   0.922658766210038   0.020616376269096
   0.431212054918019   0.422658766210038   0.520616376269096
   0.931212054918019   0.422658766210038   0.520616376269096
   0.431212054918019   0.922658766210038   0.520616376269096
   0.931212054918019   0.922658766210038   0.520616376269096
   0.491510084844874   0.422658178526062   0.270616345530783
   0.991510084844874   0.422658178526062   0.270616345530783
   0.491510084844874   0.922658178526062   0.270616345530783
   0.991510084844874   0.922658178526062   0.270616345530783
   0.491510084844874   0.422658178526062   0.770616345530783
   0.991510084844874   0.422658178526062   0.770616345530783
   0.491510084844874   0.922658178526062   0.770616345530783
   0.991510084844874   0.922658178526062   0.770616345530783
   0.431211467389366   0.008489307634557   0.270616329284520
   0.931211467389366   0.008489307634557   0.270616329284520
   0.431211467389366   0.508489307634557   0.270616329284520
   0.931211467389366   0.508489307634557   0.270616329284520
   0.431211467389366   0.008489307634557   0.770616329284520
   0.931211467389366   0.008489307634557   0.770616329284520
   0.431211467389366   0.508489307634557   0.770616329284520
   0.931211467389366   0.508489307634557   0.770616329284520
   0.077341243805051   0.068787909931411   0.270616423732930
   0.577341243805051   0.068787909931411   0.270616423732930
   0.077341243805051   0.568787909931411   0.270616423732930
   0.577341243805051   0.568787909931411   0.270616423732930
   0.077341243805051   0.068787909931411   0.770616423732930
   0.577341243805051   0.068787909931411   0.770616423732930
   0.077341243805051   0.568787909931411   0.770616423732930
   0.577341243805051   0.568787909931411   0.770616423732930
   0.410675059077772   0.175156446933509   0.187283925743491
   0.910675059077772   0.175156446933509   0.187283925743491
   0.410675059077772   0.675156446933509   0.187283925743491
   0.910675059077772   0.675156446933509   0.187283925743491
   0.410675059077772   0.175156446933509   0.687283925743491
   0.910675059077772   0.175156446933509   0.687283925743491
   0.410675059077772   0.675156446933509   0.687283925743491