 O  N  C  H 
 1.0000000000000000
    25.0000000000000000    0.0000000000000000    0.0000000000000000
     0.0000000000000000   25.0000000000000000    0.0000000000000000
     0.0000000000000000    0.0000000000000000   25.0000000000000000
 O   N   C   H  
   2   1   8   9
Cartesian
 16.8432138248879042 13.0114497452769182 12.5582241276239586
 10.2700639994984986 13.9710944456494985 12.2635841416611768
 11.3258445661072358 11.9372144764949191 12.5481500852550738
 12.7070682424389947 12.2872360807069398 12.5404369031262100
 13.1735921692248894 13.6024798119107082 12.3867566790648631
 13.6392736001356543 11.2450565872263279 12.6965788057817619
 14.5486945478379628 13.8542978176142988 12.3912761053162068
 15.0077254177786159 11.4993941023597692 12.7006046792199125
 15.4655981172853370 12.8119707852122140 12.5470326790514424
 10.2131294152573400 12.7519910324285171 12.4159432778781298
  8.8735903607290023 12.0160707504997912 12.4734608787931673
 12.4718788555482512 14.4098689732209113 12.2663322273549458
 13.2886569823795231 10.2253999401508633 12.8160130259392862
 11.1425410183575959 10.9509469991399762 12.6677871675346410
 14.9016890922407761 14.8729750563384844 12.2720282692208809
 15.7223460050815369 10.6964132335523914 12.8208135013701092
  8.3303475148234973 12.2092133841556922 11.5472276258026554
  8.2842549579601439 12.4295751533179359 13.2932308451418404
  8.9684348847963715 10.9382066250996424 12.6120011000557763
 17.0306564276386432 13.9563449990522361 12.4439178742157832
