 N  C  H 
 1.0000000000000000
    25.0000000000000000    0.0000000000000000    0.0000000000000000
     0.0000000000000000   25.0000000000000000    0.0000000000000000
     0.0000000000000000    0.0000000000000000   25.0000000000000000
 N   C   H  
   2   4   4
Cartesian
 13.9080650000000006 12.5000099999999996 12.5002100000000009
 11.0919349999999994 12.5000300000000006 12.5001899999999999
 13.1975449999999999 11.4514999999999993 12.9324499999999993
 11.8024050000000003 11.4514899999999997 12.9325200000000002
 11.8024550000000001 13.5484700000000018 12.0675600000000003
 13.1976449999999996 13.5485400000000009 12.0676200000000016
 13.7570949999999996 10.5862499999999997 13.2891200000000005
 11.2434149999999988 10.5861000000000018 13.2893100000000004
 11.2434149999999988 14.4139000000000017 11.7106899999999996
 13.7570750000000004 14.4137200000000014 11.7107799999999997
