 C  H 
 1.0000000000000000
    25.0000000000000000    0.0000000000000000    0.0000000000000000
     0.0000000000000000   25.0000000000000000    0.0000000000000000
     0.0000000000000000    0.0000000000000000   25.0000000000000000
 C   H  
  10   8
Cartesian
 10.7594300000000000 10.6617500000000014 12.4998600000000017
 12.1361099999999986 10.6628900000000009 12.4996700000000018
 12.8623599999999989 11.8811700000000009 12.4997400000000010
 12.1374399999999998 13.1190700000000007 12.5000500000000017
 10.7197399999999998 13.0818800000000017 12.5003799999999998
 10.0450400000000002 11.8819000000000017 12.5001800000000003
 14.2802199999999999 11.9182200000000016 12.4995399999999997
 12.8637300000000003 14.3372700000000002 12.5002200000000006
 14.2405000000000008 14.3384200000000011 12.5000999999999998
 14.9548199999999980 13.1183200000000006 12.4997100000000003
 14.8292499999999983 10.9774200000000004 12.4994399999999999
 10.2147399999999990  9.7199100000000005 12.4999099999999999
 12.6883499999999998  9.7239500000000003 12.4994499999999995
 10.1710499999999993 14.0228500000000018 12.5005600000000001
  8.9572399999999988 11.8678300000000014 12.5004900000000010
 12.3118099999999995 15.2763400000000011 12.5005300000000013
 14.7855199999999982 15.2800900000000013 12.5001500000000014
 16.0427600000000012 13.1325500000000019 12.4996700000000018
