 H  C  N 
 1.0000000000000000
    -7.0175488174121794    7.0175488174121794    7.0175488174121794
     7.0175488174121794   -7.0175488174121794    7.0175488174121794
     7.0175488174121794    7.0175488174121794   -7.0175488174121794
 H   C   N  
  96  48  32
Selective dynamics
Cartesian
  2.6585328988195607  0.9555815632678245 -0.3114999667471252   T   T   T
 -0.8502415098865262  4.4643559719739123  3.1972744419589660   T   T   T
  6.1673073075256575 -2.5531928454382649  3.1972744419589652   T   T   T
  2.6585328988195642  0.9555815632678245  6.7060488506650540   T   T   T
  6.1673073075256575  4.4643559719739114 -3.8202743754532134   T   T   T
  2.6585328988195642  7.9731303806800016 -0.3114999667471252   T   T   T
  9.6760817162317458  0.9555815632678236 -0.3114999667471261   T   T   T
  6.1673073075256575  4.4643559719739114  3.1972744419589652   T   T   T
 -0.3115253010398351  2.6585582331122706  0.9555815632678250   T   T   T
 -3.8202997097459215  6.1673326418183620  4.4643559719739123   T   T   T
  3.1972491076662610 -0.8502161755938185  4.4643559719739114   T   T   T
 -0.3115253010398316  2.6585582331122706  7.9731303806800016   T   T   T
  3.1972491076662610  6.1673326418183612 -2.5531928454382644   T   T   T
 -0.3115253010398315  9.6761070505244451  0.9555815632678250   T   T   T
  6.7060235163723476  2.6585582331122697  0.9555815632678241   T   T   T
  3.1972491076662646  6.1673326418183612  4.4643559719739114   T   T   T
  5.0030468465278961  0.9555815632678242  0.9555815632678242   T   T   T
  1.4942724378218095  4.4643559719739114  4.4643559719739123   T   T   T
  8.5118212552339862 -2.5531928454382653  4.4643559719739114   T   T   T
  5.0030468465279032  0.9555815632678242  7.9731303806800007   T   T   T
  8.5118212552339862  4.4643559719739105 -2.5531928454382653   T   T   T
  5.0030468465279032  7.9731303806800007  0.9555815632678251   T   T   T
 12.0205956639400782  0.9555815632678233  0.9555815632678242   T   T   T
  8.5118212552339862  4.4643559719739105  4.4643559719739114   T   T   T
 -0.3115253010398351  0.9555815632678250  2.6585582331122706   T   T   T
 -3.8202997097459215  4.4643559719739114  6.1673326418183620   T   T   T
  3.1972491076662610 -2.5531928454382644  6.1673326418183612   T   T   T
 -0.3115253010398315  0.9555815632678250  9.6761070505244451   T   T   T
  3.1972491076662610  4.4643559719739105 -0.8502161755938185   T   T   T
 -0.3115253010398316  7.9731303806800016  2.6585582331122706   T   T   T
  6.7060235163723476  0.9555815632678241  2.6585582331122697   T   T   T
  3.1972491076662646  4.4643559719739105  6.1673326418183612   T   T   T
  0.9555562289751159  2.6585582331122710 -0.3114999667471250   T   T   T
 -2.5532181797309734  6.1673326418183629  3.1972744419589665   T   T   T
  4.4643306376812042 -0.8502161755938187  3.1972744419589656   T   T   T
  0.9555562289751195  2.6585582331122710  6.7060488506650549   T   T   T
  4.4643306376812042  6.1673326418183620 -3.8202743754532129   T   T   T
  0.9555562289751195  9.6761070505244451 -0.3114999667471250   T   T   T
  7.9731050463872988  2.6585582331122701 -0.3114999667471259   T   T   T
  4.4643306376812042  6.1673326418183620  3.1972744419589656   T   T   T
  0.9555562289751159 -0.3114999667471250  2.6585582331122710   T   T   T
 -2.5532181797309734  3.1972744419589665  6.1673326418183629   T   T   T
  4.4643306376812042 -3.8202743754532134  6.1673326418183620   T   T   T
  0.9555562289751195 -0.3114999667471250  9.6761070505244451   T   T   T
  4.4643306376812042  3.1972744419589656 -0.8502161755938187   T   T   T
  0.9555562289751195  6.7060488506650549  2.6585582331122710   T   T   T
  7.9731050463872988 -0.3114999667471259  2.6585582331122701   T   T   T
  4.4643306376812042  3.1972744419589656  6.1673326418183620   T   T   T
  1.4942724378218093  3.1972744419589656  3.1972744419589656   T   T   T
 -2.0145019708842775  6.7060488506650540  6.7060488506650549   T   T   T
  5.0030468465278961 -0.3114999667471255  6.7060488506650540   T   T   T
  1.4942724378218128  3.1972744419589656 10.2148232593711352   T   T   T
  5.0030468465278961  6.7060488506650531 -0.3114999667471255   T   T   T
  1.4942724378218128 10.2148232593711352  3.1972744419589665   T   T   T
  8.5118212552339862  3.1972744419589647  3.1972744419589656   T   T   T
  5.0030468465278961  6.7060488506650531  6.7060488506650540   T   T   T
  3.1972491076662575  1.4942977721145161  3.1972744419589656   T   T   T
 -0.3115253010398306  5.0030721808206025  6.7060488506650557   T   T   T
  6.7060235163723476 -2.0144766365915716  6.7060488506650549   T   T   T
  3.1972491076662610  1.4942977721145161 10.2148232593711352   T   T   T
  6.7060235163723476  5.0030721808206025 -0.3114999667471257   T   T   T
  3.1972491076662610  8.5118465895266926  3.1972744419589665   T   T   T
 10.2147979250784342  1.4942977721145152  3.1972744419589656   T   T   T
  6.7060235163723476  5.0030721808206025  6.7060488506650549   T   T   T
  0.9555562289751177  5.0030721808206033  0.9555815632678247   T   T   T
 -2.5532181797309699  8.5118465895266944  4.4643559719739123   T   T   T
  4.4643306376812042  1.4942977721145161  4.4643559719739114   T   T   T
  0.9555562289751213  5.0030721808206033  7.9731303806800016   T   T   T
  4.4643306376812113  8.5118465895266926 -2.5531928454382649   T   T   T
  0.9555562289751213 12.0206209982327810  0.9555815632678256   T   T   T
  7.9731050463872988  5.0030721808206025  0.9555815632678247   T   T   T
  4.4643306376812113  8.5118465895266926  4.4643559719739114   T   T   T
  2.6585328988195607 -0.3114999667471252  0.9555815632678245   T   T   T
 -0.8502415098865262  3.1972744419589660  4.4643559719739132   T   T   T
  6.1673073075256575 -3.8202743754532138  4.4643559719739123   T   T   T
  2.6585328988195642 -0.3114999667471252  7.9731303806800016   T   T   T
  6.1673073075256575  3.1972744419589652 -2.5531928454382649   T   T   T
  2.6585328988195642  6.7060488506650540  0.9555815632678245   T   T   T
  9.6760817162317458 -0.3114999667471260  0.9555815632678236   T   T   T
  6.1673073075256575  3.1972744419589652  4.4643559719739123   T   T   T
  0.9555562289751177  0.9555815632678247  5.0030721808206033   T   T   T
 -2.5532181797309699  4.4643559719739114  8.5118465895266944   T   T   T
  4.4643306376812113 -2.5531928454382649  8.5118465895266926   T   T   T
  0.9555562289751213  0.9555815632678247 12.0206209982327810   T   T   T
  4.4643306376812042  4.4643559719739105  1.4942977721145161   T   T   T
  0.9555562289751213  7.9731303806800016  5.0030721808206042   T   T   T
  7.9731050463872988  0.9555815632678238  5.0030721808206033   T   T   T
  4.4643306376812113  4.4643559719739105  8.5118465895266926   T   T   T
  3.1972491076662575  3.1972744419589656  1.4942977721145156   T   T   T
 -0.3115253010398306  6.7060488506650549  5.0030721808206033   T   T   T
  6.7060235163723476 -0.3114999667471257  5.0030721808206025   T   T   T
  3.1972491076662610  3.1972744419589656  8.5118465895266926   T   T   T
  6.7060235163723476  6.7060488506650540 -2.0144766365915721   T   T   T
  3.1972491076662610 10.2148232593711352  1.4942977721145165   T   T   T
 10.2147979250784342  3.1972744419589647  1.4942977721145156   T   T   T
  6.7060235163723476  6.7060488506650540  5.0030721808206025   T   T   T
  2.0337048524089747  0.3220407982603496  0.3220407982603495   T   T   T
 -1.4750695562971123  3.8308152069664394  3.8308152069664398   T   T   T
  5.5424792611150648 -3.1867336104457409  3.8308152069664390   T   T   T
  2.0337048524089782  0.3220407982603496  7.3395896156725291   T   T   T
  5.5424792611150648  3.8308152069664385 -3.1867336104457409   T   T   T
  2.0337048524089782  7.3395896156725291  0.3220407982603504   T   T   T
  9.0512536698211559  0.3220407982603488  0.3220407982603495   T   T   T
  5.5424792611150648  3.8308152069664385  3.8308152069664390   T   T   T
  0.3220154639676393  2.0337301867016842  0.3220407982603498   T   T   T
 -3.1867589447384481  5.5425045954077703  3.8308152069664398   T   T   T
  3.8307898726737344 -1.4750442220044038  3.8308152069664390   T   T   T
  0.3220154639676429  2.0337301867016842  7.3395896156725282   T   T   T
  3.8307898726737344  5.5425045954077694 -3.1867336104457409   T   T   T
  0.3220154639676429  9.0512790041138587  0.3220407982603506   T   T   T
  7.3395642813798236  2.0337301867016833  0.3220407982603498   T   T   T
  3.8307898726737379  5.5425045954077694  3.8308152069664390   T   T   T
  5.6278748929384816  0.3220407982603492  0.3220407982603491   T   T   T
  2.1191004842323999  3.8308152069664390  3.8308152069664394   T   T   T
  9.1366493016445727 -3.1867336104457413  3.8308152069664385   T   T   T
  5.6278748929384887  0.3220407982603492  7.3395896156725282   T   T   T
  9.1366493016445727  3.8308152069664381 -3.1867336104457413   T   T   T
  5.6278748929384887  7.3395896156725282  0.3220407982603500   T   T   T
 12.6454237103506770  0.3220407982603483  0.3220407982603491   T   T   T
  9.1366493016445727  3.8308152069664381  3.8308152069664385   T   T   T
  0.3220154639676393  0.3220407982603499  2.0337301867016842   T   T   T
 -3.1867589447384481  3.8308152069664394  5.5425045954077712   T   T   T
  3.8307898726737344 -3.1867336104457409  5.5425045954077703   T   T   T
  0.3220154639676429  0.3220407982603499  9.0512790041138587   T   T   T
  3.8307898726737344  3.8308152069664385 -1.4750442220044038   T   T   T
  0.3220154639676429  7.3395896156725282  2.0337301867016850   T   T   T
  7.3395642813798236  0.3220407982603490  2.0337301867016842   T   T   T
  3.8307898726737379  3.8308152069664385  5.5425045954077703   T   T   T
  0.3220154639676411  5.6279002272311880  0.3220407982603498   T   T   T
 -3.1867589447384481  9.1366746359372790  3.8308152069664398   T   T   T
  3.8307898726737344  2.1191258185251027  3.8308152069664390   T   T   T
  0.3220154639676446  5.6279002272311880  7.3395896156725282   T   T   T
  3.8307898726737344  9.1366746359372755 -3.1867336104457409   T   T   T
  0.3220154639676446 12.6454490446433763  0.3220407982603506   T   T   T
  7.3395642813798236  5.6279002272311871  0.3220407982603498   T   T   T
  3.8307898726737379  9.1366746359372755  3.8308152069664390   T   T   T
  0.3220154639676411  0.3220407982603499  5.6279002272311880   T   T   T
 -3.1867589447384481  3.8308152069664394  9.1366746359372790   T   T   T
  3.8307898726737344 -3.1867336104457409  9.1366746359372755   T   T   T
  0.3220154639676446  0.3220407982603499 12.6454490446433763   T   T   T
  3.8307898726737344  3.8308152069664385  2.1191258185251027   T   T   T
  0.3220154639676446  7.3395896156725282  5.6279002272311889   T   T   T
  7.3395642813798236  0.3220407982603490  5.6279002272311880   T   T   T
  3.8307898726737379  3.8308152069664385  9.1366746359372755   T   T   T
  1.2004357878346648  1.2004611221273755  1.2004611221273751   T   T   T
 -2.3083386208714169  4.7092355308334595  4.7092355308334595   T   T   T
  4.7092101965407522 -2.3083132865787115  4.7092355308334595   T   T   T
  1.2004357878346683  1.2004611221273755  8.2180099395395523   T   T   T
  4.7092101965407522  4.7092355308334595 -2.3083132865787119   T   T   T
  1.2004357878346683  8.2180099395395523  1.2004611221273760   T   T   T
  8.2179846052468459  1.2004611221273747  1.2004611221273751   T   T   T
  4.7092101965407522  4.7092355308334586  4.7092355308334586   T   T   T
  2.9523695488067001 -2.3083132865787115  2.9523948830994096   T   T   T
 -0.5564048598993837  1.2004611221273758  6.4611692918055050   T   T   T
  6.4611439575128005 -5.8170876952848003  6.4611692918055041   T   T   T
  2.9523695488067037 -2.3083132865787115  9.9699437005115836   T   T   T
  6.4611439575128005  1.2004611221273749 -0.5563795256066770   T   T   T
  2.9523695488067037  4.7092355308334586  2.9523948830994096   T   T   T
  9.9699183662188826 -2.3083132865787124  2.9523948830994087   T   T   T
  6.4611439575128014  1.2004611221273749  6.4611692918055041   T   T   T
  2.9523695488067001  2.9523948830994096 -2.3083132865787115   T   T   T
 -0.5564048598993837  6.4611692918055059  1.2004611221273758   T   T   T
  6.4611439575128014 -0.5563795256066770  1.2004611221273749   T   T   T
  2.9523695488067037  2.9523948830994096  4.7092355308334586   T   T   T
  6.4611439575128005  6.4611692918055041 -5.8170876952848003   T   T   T
  2.9523695488067037  9.9699437005115836 -2.3083132865787115   T   T   T
  9.9699183662188826  2.9523948830994087 -2.3083132865787124   T   T   T
  6.4611439575128005  6.4611692918055041  1.2004611221273749   T   T   T
 -2.3083386208714241  2.9523948830994104  2.9523948830994104   T   T   T
 -5.8171130295775164  6.4611692918055059  6.4611692918055059   T   T   T
  1.2004357878346683 -0.5563795256066764  6.4611692918055059   T   T   T
 -2.3083386208714205  2.9523948830994104  9.9699437005115854   T   T   T
  1.2004357878346683  6.4611692918055059 -0.5563795256066764   T   T   T
 -2.3083386208714205  9.9699437005115854  2.9523948830994104   T   T   T
  4.7092101965407522  2.9523948830994096  2.9523948830994096   T   T   T
  1.2004357878346719  6.4611692918055050  6.4611692918055050   T   T   T
