 C  H 
 1.0000000000000000
    25.0000000000000000    0.0000000000000000    0.0000000000000000
     0.0000000000000000   25.0000000000000000    0.0000000000000000
     0.0000000000000000    0.0000000000000000   25.0000000000000000
 C   H  
  14  10
Cartesian
  9.7081450000000000 10.0338949999999993 12.4969700000000010
 11.0788949999999993 10.0340650000000000 12.5019100000000023
 11.8121149999999986 11.2571349999999999 12.5011700000000019
 11.0795750000000002 12.5033349999999999 12.4951500000000024
  9.6544249999999998 12.4575949999999995 12.4902600000000028
  8.9876250000000013 11.2598549999999999 12.4910400000000017
 13.2113249999999987 11.2897250000000007 12.5058700000000016
 11.7885150000000003 13.7101450000000007 12.4943700000000018
 13.1878449999999994 13.7427349999999997 12.4990400000000008
 13.9202650000000006 12.4965650000000004 12.5049200000000020
 15.3454650000000008 12.5423849999999995 12.5096700000000016
 16.0124649999999988 13.7400850000000005 12.5087700000000019
 15.2917650000000016 14.9659550000000010 12.5030300000000025
 13.9209649999999989 14.9657650000000011 12.4982000000000006
 15.8963649999999994 11.6027649999999998 12.5142300000000013
 13.7638649999999991 10.3496950000000005 12.5102600000000024
  9.1619550000000007  9.0930649999999993 12.4973800000000015
 11.6320850000000000  9.0958150000000000 12.5063000000000013
  9.1035749999999993 13.3971950000000000 12.4857700000000023
  7.8998350000000004 11.2404049999999991 12.4873500000000028
 11.2358750000000001 14.6502149999999993 12.4899700000000013
 17.1001650000000005 13.7595849999999995 12.5126100000000022
 15.8378650000000007 15.9069350000000007 12.5025800000000018
 13.3677649999999986 15.9039849999999987 12.4940400000000018
