 C  O  N  H 
        1.0000000000
  11.252131276024933   0.000000000000000   0.000000000000000
   0.000000000000000  11.252131276024933   0.000000000000000
   0.000000000000000   0.000000000000000  19.214717685209635
   32   32   64  128
 Direct
   0.000000073228204   0.213561786268475   0.081486470517184
   0.500000073228204   0.213561786268475   0.081486470517184
   0.000000073228204   0.713561786268475   0.081486470517184
   0.500000073228204   0.713561786268475   0.081486470517184
   0.000000073228204   0.213561786268475   0.331486470517184
   0.500000073228204   0.213561786268475   0.331486470517184
   0.000000073228204   0.713561786268475   0.331486470517184
   0.500000073228204   0.713561786268475   0.331486470517184
   0.000000073228204   0.213561786268475   0.581486470517184
   0.500000073228204   0.213561786268475   0.581486470517184
   0.000000073228204   0.713561786268475   0.581486470517184
   0.500000073228204   0.713561786268475   0.581486470517184
   0.000000073228204   0.213561786268475   0.831486470517184
   0.500000073228204   0.213561786268475   0.831486470517184
   0.000000073228204   0.713561786268475   0.831486470517184
   0.500000073228204   0.713561786268475   0.831486470517184
   0.250000073228204   0.463561786268475   0.168513578839656
   0.750000073228204   0.463561786268475   0.168513578839656
   0.250000073228204   0.963561786268475   0.168513578839656
   0.750000073228204   0.963561786268475   0.168513578839656
   0.250000073228204   0.463561786268475   0.418513578839656
   0.750000073228204   0.463561786268475   0.418513578839656
   0.250000073228204   0.963561786268475   0.418513578839656
   0.750000073228204   0.963561786268475   0.418513578839656
   0.250000073228204   0.463561786268475   0.668513578839656
   0.750000073228204   0.463561786268475   0.668513578839656
   0.250000073228204   0.963561786268475   0.668513578839656
   0.750000073228204   0.963561786268475   0.668513578839656
   0.250000073228204   0.463561786268475   0.918513578839656
   0.750000073228204   0.463561786268475   0.918513578839656
   0.250000073228204   0.963561786268475   0.918513578839656
   0.750000073228204   0.963561786268475   0.918513578839656
   0.500000073228204   0.213561786268475   0.147811225957196
   1.000000073228204   0.213561786268475   0.147811225957196
   0.500000073228204   0.713561786268475   0.147811225957196
   1.000000073228204   0.713561786268475   0.147811225957196
   0.500000073228204   0.213561786268475   0.397811225957196
   1.000000073228204   0.213561786268475   0.397811225957196
   0.500000073228204   0.713561786268475   0.397811225957196
   1.000000073228204   0.713561786268475   0.397811225957196
   0.500000073228204   0.213561786268475   0.647811225957196
   1.000000073228204   0.213561786268475   0.647811225957196
   0.500000073228204   0.713561786268475   0.647811225957196
   1.000000073228204   0.713561786268475   0.647811225957196
   0.500000073228204   0.213561786268475   0.897811225957196
   1.000000073228204   0.213561786268475   0.897811225957196
   0.500000073228204   0.713561786268475   0.897811225957196
   1.000000073228204   0.713561786268475   0.897811225957196
   0.250000073228204   0.463561786268475   0.102188823399644
   0.750000073228204   0.463561786268475   0.102188823399644
   0.250000073228204   0.963561786268475   0.102188823399644
   0.750000073228204   0.963561786268475   0.102188823399644
   0.250000073228204   0.463561786268475   0.352188823399644
   0.750000073228204   0.463561786268475   0.352188823399644
   0.250000073228204   0.963561786268475   0.352188823399644
   0.750000073228204   0.963561786268475   0.352188823399644
   0.250000073228204   0.463561786268475   0.602188823399644
   0.750000073228204   0.463561786268475   0.602188823399644
   0.250000073228204   0.963561786268475   0.602188823399644
   0.750000073228204   0.963561786268475   0.602188823399644
   0.250000073228204   0.463561786268475   0.852188823399644
   0.750000073228204   0.463561786268475   0.852188823399644
   0.250000073228204   0.963561786268475   0.852188823399644
   0.750000073228204   0.963561786268475   0.852188823399644
   0.072884985477308   0.286446698517579   0.044703870981250
   0.572884985477308   0.286446698517579   0.044703870981250
   0.072884985477308   0.786446698517579   0.044703870981250
   0.572884985477308   0.786446698517579   0.044703870981250
   0.072884985477308   0.286446698517579   0.294703870981250
   0.572884985477308   0.286446698517579   0.294703870981250
   0.072884985477308   0.786446698517579   0.294703870981250
   0.572884985477308   0.786446698517579   0.294703870981250
   0.072884985477308   0.286446698517579   0.544703870981250
   0.572884985477308   0.286446698517579   0.544703870981250
   0.072884985477308   0.786446698517579   0.544703870981250
   0.572884985477308   0.786446698517579   0.544703870981250
   0.072884985477308   0.286446698517579   0.794703870981250
   0.572884985477308   0.286446698517579   0.794703870981250
   0.072884985477308   0.786446698517579   0.794703870981250
   0.572884985477308   0.786446698517579   0.794703870981250
   0.427115160979099   0.140676874019371   0.044703870981250
   0.927115160979099   0.140676874019371   0.044703870981250
   0.427115160979099   0.640676874019371   0.044703870981250
   0.927115160979099   0.640676874019371   0.044703870981250
   0.427115160979099   0.140676874019371   0.294703870981250
   0.927115160979099   0.140676874019371   0.294703870981250
   0.427115160979099   0.640676874019371   0.294703870981250
   0.927115160979099   0.640676874019371   0.294703870981250
   0.427115160979099   0.140676874019371   0.544703870981250
   0.927115160979099   0.140676874019371   0.544703870981250
   0.427115160979099   0.640676874019371   0.544703870981250
   0.927115160979099   0.640676874019371   0.544703870981250
   0.427115160979099   0.140676874019371   0.794703870981250
   0.927115160979099   0.140676874019371   0.794703870981250
   0.427115160979099   0.640676874019371   0.794703870981250
   0.927115160979099   0.640676874019371   0.794703870981250
   0.322884985477308   0.390676874019370   0.205296178375590
   0.822884985477308   0.390676874019370   0.205296178375590
   0.322884985477308   0.890676874019370   0.205296178375590
   0.822884985477308   0.890676874019370   0.205296178375590
   0.322884985477308   0.390676874019370   0.455296178375590
   0.822884985477308   0.390676874019370   0.455296178375590
   0.322884985477308   0.890676874019370   0.455296178375590
   0.822884985477308   0.890676874019370   0.455296178375590
   0.322884985477308   0.390676874019370   0.705296178375590
   0.822884985477308   0.390676874019370   0.705296178375590
   0.322884985477308   0.890676874019370   0.705296178375590
   0.822884985477308   0.890676874019370   0.705296178375590
   0.322884985477308   0.390676874019370   0.955296178375590
   0.822884985477308   0.390676874019370   0.955296178375590
   0.322884985477308   0.890676874019370   0.955296178375590
   0.822884985477308   0.890676874019370   0.955296178375590
   0.177115160979100   0.036446698517579   0.205296178375590
   0.677115160979100   0.036446698517579   0.205296178375590
   0.177115160979100   0.536446698517579   0.205296178375590
   0.677115160979100   0.536446698517579   0.205296178375590
   0.177115160979100   0.036446698517579   0.455296178375590
   0.677115160979100   0.036446698517579   0.455296178375590
   0.177115160979100   0.536446698517579   0.455296178375590
   0.677115160979100   0.536446698517579   0.455296178375590
   0.177115160979100   0.036446698517579   0.705296178375590
   0.677115160979100   0.036446698517579   0.705296178375590
   0.177115160979100   0.536446698517579   0.705296178375590
   0.677115160979100   0.536446698517579   0.705296178375590
   0.177115160979100   0.036446698517579   0.955296178375590
   0.677115160979100   0.036446698517579   0.955296178375590
   0.177115160979100   0.536446698517579   0.955296178375590
   0.677115160979100   0.536446698517579   0.955296178375590
   0.128548989112404   0.342110702152675   0.070476281648419
   0.628548989112404   0.342110702152675   0.070476281648419
   0.128548989112404   0.842110702152675   0.070476281648419
   0.628548989112404   0.842110702152675   0.070476281648419
   0.128548989112404   0.342110702152675   0.320476281648419
   0.628548989112404   0.342110702152675   0.320476281648419
   0.128548989112404   0.842110702152675   0.320476281648419
   0.628548989112404   0.842110702152675   0.320476281648419
   0.128548989112404   0.342110702152675   0.570476281648419
   0.628548989112404   0.342110702152675   0.570476281648419
   0.128548989112404   0.842110702152675   0.570476281648419
   0.628548989112404   0.842110702152675   0.570476281648419
   0.128548989112404   0.342110702152675   0.820476281648419
   0.628548989112404   0.342110702152675   0.820476281648419
   0.128548989112404   0.842110702152675   0.820476281648419
   0.628548989112404   0.842110702152675   0.820476281648419
   0.371451157344004   0.085012870384275   0.070476281648419
   0.871451157344004   0.085012870384275   0.070476281648419
   0.371451157344004   0.585012870384275   0.070476281648419
   0.871451157344004   0.585012870384275   0.070476281648419
   0.371451157344004   0.085012870384275   0.320476281648419
   0.871451157344004   0.085012870384275   0.320476281648419
   0.371451157344004   0.585012870384275   0.320476281648419
   0.871451157344004   0.585012870384275   0.320476281648419
   0.371451157344004   0.085012870384275   0.570476281648419
   0.871451157344004   0.085012870384275   0.570476281648419
   0.371451157344004   0.585012870384275   0.570476281648419
   0.871451157344004   0.585012870384275   0.570476281648419
   0.371451157344004   0.085012870384275   0.820476281648419
   0.871451157344004   0.085012870384275   0.820476281648419
   0.371451157344004   0.585012870384275   0.820476281648419
   0.871451157344004   0.585012870384275   0.820476281648419
   0.378548989112404   0.335012870384275   0.179523767708421
   0.878548989112404   0.335012870384275   0.179523767708421
   0.378548989112404   0.835012870384275   0.179523767708421
   0.878548989112404   0.835012870384275   0.179523767708421
   0.378548989112404   0.335012870384275   0.429523767708421
   0.878548989112404   0.335012870384275   0.429523767708421
   0.378548989112404   0.835012870384275   0.429523767708421
   0.878548989112404   0.835012870384275   0.429523767708421
   0.378548989112404   0.335012870384275   0.679523767708421
   0.878548989112404   0.335012870384275   0.679523767708421
   0.378548989112404   0.835012870384275   0.679523767708421
   0.878548989112404   0.835012870384275   0.679523767708421
   0.378548989112404   0.335012870384275   0.929523767708421
   0.878548989112404   0.335012870384275   0.929523767708421
   0.378548989112404   0.835012870384275   0.929523767708421
   0.878548989112404   0.835012870384275   0.929523767708421
   0.121451157344004   0.092110702152675   0.179523767708421
   0.621451157344004   0.092110702152675   0.179523767708421
   0.121451157344004   0.592110702152675   0.179523767708421
   0.621451157344004   0.592110702152675   0.179523767708421
   0.121451157344004   0.092110702152675   0.429523767708421
   0.621451157344004   0.092110702152675   0.429523767708421
   0.121451157344004   0.592110702152675   0.429523767708421
   0.621451157344004   0.592110702152675   0.429523767708421
   0.121451157344004   0.092110702152675   0.679523767708421
   0.621451157344004   0.092110702152675   0.679523767708421
   0.121451157344004   0.592110702152675   0.679523767708421
   0.621451157344004   0.592110702152675   0.679523767708421
   0.121451157344004   0.092110702152675   0.929523767708421
   0.621451157344004   0.092110702152675   0.929523767708421
   0.121451157344004   0.592110702152675   0.929523767708421
   0.621451157344004   0.592110702152675   0.929523767708421
   0.072765890953550   0.286327603993821   0.241922977105764
   0.572765890953550   0.286327603993821   0.241922977105764
   0.072765890953550   0.786327603993821   0.241922977105764
   0.572765890953550   0.786327603993821   0.241922977105764
   0.072765890953550   0.286327603993821   0.491922977105764
   0.572765890953550   0.286327603993821   0.491922977105764
   0.072765890953550   0.786327603993821   0.491922977105764
   0.572765890953550   0.786327603993821   0.491922977105764
   0.072765890953550   0.286327603993821   0.741922977105764
   0.572765890953550   0.286327603993821   0.741922977105764
   0.072765890953550   0.786327603993821   0.741922977105764
   0.572765890953550   0.786327603993821   0.741922977105764
   0.072765890953550   0.286327603993821   0.991922977105764
   0.572765890953550   0.286327603993821   0.991922977105764
   0.072765890953550   0.786327603993821   0.991922977105764
   0.572765890953550   0.786327603993821   0.991922977105764
   0.427234255502857   0.140795968543128   0.241922977105764
   0.927234255502857   0.140795968543128   0.241922977105764
   0.427234255502857   0.640795968543128   0.241922977105764
   0.927234255502857   0.640795968543128   0.241922977105764
   0.427234255502857   0.140795968543128   0.491922977105764
   0.927234255502857   0.140795968543128   0.491922977105764
   0.427234255502857   0.640795968543128   0.491922977105764
   0.927234255502857   0.640795968543128   0.491922977105764
   0.427234255502857   0.140795968543128   0.741922977105764
   0.927234255502857   0.140795968543128   0.741922977105764
   0.427234255502857   0.640795968543128   0.741922977105764
   0.927234255502857   0.640795968543128   0.741922977105764
   0.427234255502857   0.140795968543128   0.991922977105764
   0.927234255502857   0.140795968543128   0.991922977105764
   0.427234255502857   0.640795968543128   0.991922977105764
   0.927234255502857   0.640795968543128   0.991922977105764
   0.322765890953550   0.390795968543128   0.008077072251076
   0.822765890953550   0.390795968543128   0.008077072251076
   0.322765890953550   0.890795968543128   0.008077072251076
   0.822765890953550   0.890795968543128   0.008077072251076
   0.322765890953550   0.390795968543128   0.258077072251076
   0.822765890953550   0.390795968543128   0.258077072251076
   0.322765890953550   0.890795968543128   0.258077072251076
   0.822765890953550   0.890795968543128   0.258077072251076
   0.322765890953550   0.390795968543128   0.508077072251076
   0.822765890953550   0.390795968543128   0.508077072251076
   0.322765890953550   0.890795968543128   0.508077072251076
   0.822765890953550   0.890795968543128   0.508077072251076
   0.322765890953550   0.390795968543128   0.758077072251076
   0.822765890953550   0.390795968543128   0.758077072251076
   0.322765890953550   0.890795968543128   0.758077072251076
   0.822765890953550   0.890795968543128   0.758077072251076
   0.177234255502857   0.036327603993821   0.008077072251076
   0.677234255502857   0.036327603993821   0.008077072251076
   0.177234255502857   0.536327603993821   0.008077072251076
   0.677234255502857   0.536327603993821   0.008077072251076
   0.177234255502857   0.036327603993821   0.258077072251076
   0.677234255502857   0.036327603993821   0.258077072251076
   0.177234255502857   0.536327603993821   0.258077072251076
   0.677234255502857   0.536327603993821   0.258077072251076
   0.177234255502857   0.036327603993821   0.508077072251076
   0.677234255502857   0.036327603993821   0.508077072251076
   0.177234255502857   0.536327603993821   0.508077072251076
   0.677234255502857   0.536327603993821   0.508077072251076
   0.177234255502857   0.036327603993821   0.758077072251076
   0.677234255502857   0.036327603993821   0.758077072251076
   0.177234255502857   0.536327603993821   0.758077072251076
   0.677234255502857   0.536327603993821   0.758077072251076
