 C  H  N 
 1.0000000000000000
    16.3799999999999990    0.0000000000000000    0.0000000000000000
     0.0000000000000000   25.1759999999999984    0.0000000000000000
     0.0000000000000000    0.0000000000000000   13.5459999999999994
 C   H   N  
 192 256 128
Cartesian
  2.3723800226019529  0.7066944523653931  2.6197565280887640
  6.4674007938803220 11.8813629709900894  4.1531742694992362
  2.3723814280837083  5.5872898282133869  6.0062685146758152
  6.4674148184624629  7.0006767000226633  0.7667059866617584
  3.2104788826022528  1.4717139145088185  3.4525755540738476
  7.3054754101355748 11.1163014264396089  3.3203899590654262
  3.2104770468796286  4.8222668212620237  0.0660973066326607
  7.3054943532171146  7.7657092911953605  6.7068908687619677
  2.4036154243358498  2.5005538517239265  3.9201216199742737
  6.4985952872467809 10.0874724726873399  2.8528386018231697
  2.4035938864460507  3.7934463513943188  0.5336489872096821
  6.4986200889756098  8.7945397159762511  6.2393380113189894
  5.8419189675773087  2.3571710176646867  6.2786395130348334
  1.7469732785661267 10.2308009783399694  0.4943236602469405
  5.8419760817341979  3.9368367637590618  2.8921656676626628
  1.7469545719280135  8.6511919174435068  3.8808381707818480
  4.9707067277769053  1.3737573746610023  0.0073527398378769
  0.8757590746732270 11.2142368873820732  6.7656255173568418
  4.9707328177071757  4.9202364777722076  3.3938643998743871
  0.8757393243107015  7.6677718807346853  3.3791375249584221
  5.7263885139952260  0.6642878558069201  0.9305849018516120
  1.6314259951465224 11.9236946547230556  5.8423765208502960
  5.7263858682354636  5.6297173680561103  4.3171158286926579
  1.6314064349455624  6.9582996356810982  2.4558928287676816
  2.3723800226019529  0.7066944523653931  9.3927565280887659
  6.4674007938803220 11.8813629709900894 10.9261742694992350
  2.3723814280837083  5.5872898282133869 12.7792685146758167
  6.4674148184624629  7.0006767000226633  7.5397059866617591
  3.2104788826022528  1.4717139145088185 10.2255755540738473
  7.3054754101355748 11.1163014264396089 10.0933899590654264
  3.2104770468796286  4.8222668212620237  6.8390973066326604
  7.3054943532171146  7.7657092911953605 13.4798908687619665
  2.4036154243358498  2.5005538517239265 10.6931216199742725
  6.4985952872467809 10.0874724726873399  9.6258386018231690
  2.4035938864460507  3.7934463513943188  7.3066489872096820
  6.4986200889756098  8.7945397159762511 13.0123380113189882
  5.8419189675773087  2.3571710176646867 13.0516395130348322
  1.7469732785661267 10.2308009783399694  7.2673236602469400
  5.8419760817341979  3.9368367637590618  9.6651656676626629
  1.7469545719280135  8.6511919174435068 10.6538381707818477
  4.9707067277769053  1.3737573746610023  6.7803527398378769
  0.8757590746732270 11.2142368873820732 13.5386255173568433
  4.9707328177071757  4.9202364777722076 10.1668643998743882
  0.8757393243107015  7.6677718807346853 10.1521375249584214
  5.7263885139952260  0.6642878558069201  7.7035849018516114
  1.6314259951465224 11.9236946547230556 12.6153765208502957
  5.7263858682354636  5.6297173680561103 11.0901158286926567
  1.6314064349455624  6.9582996356810982  9.2288928287676804
  2.3723800226019529 13.2946944523653947  2.6197565280887640
  6.4674007938803220 24.4693629709900904  4.1531742694992362
  2.3723814280837083 18.1752898282133870  6.0062685146758152
  6.4674148184624629 19.5886767000226634  0.7667059866617584
  3.2104788826022528 14.0597139145088175  3.4525755540738476
  7.3054754101355748 23.7043014264396064  3.3203899590654262
  3.2104770468796286 17.4102668212620237  0.0660973066326607
  7.3054943532171146 20.3537092911953579  6.7068908687619677
  2.4036154243358498 15.0885538517239262  3.9201216199742737
  6.4985952872467809 22.6754724726873391  2.8528386018231697
  2.4035938864460507 16.3814463513943167  0.5336489872096821
  6.4986200889756098 21.3825397159762502  6.2393380113189894
  5.8419189675773087 14.9451710176646841  6.2786395130348334
  1.7469732785661267 22.8188009783399686  0.4943236602469405
  5.8419760817341979 16.5248367637590619  2.8921656676626628
  1.7469545719280135 21.2391919174435060  3.8808381707818480
  4.9707067277769053 13.9617573746610013  0.0073527398378769
  0.8757590746732270 23.8022368873820724  6.7656255173568418
  4.9707328177071757 17.5082364777722077  3.3938643998743871
  0.8757393243107015 20.2557718807346845  3.3791375249584221
  5.7263885139952260 13.2522878558069195  0.9305849018516120
  1.6314259951465224 24.5116946547230548  5.8423765208502960
  5.7263858682354636 18.2177173680561104  4.3171158286926579
  1.6314064349455624 19.5462996356810983  2.4558928287676816
  2.3723800226019529 13.2946944523653947  9.3927565280887659
  6.4674007938803220 24.4693629709900904 10.9261742694992350
  2.3723814280837083 18.1752898282133870 12.7792685146758167
  6.4674148184624629 19.5886767000226634  7.5397059866617591
  3.2104788826022528 14.0597139145088175 10.2255755540738473
  7.3054754101355748 23.7043014264396064 10.0933899590654264
  3.2104770468796286 17.4102668212620237  6.8390973066326604
  7.3054943532171146 20.3537092911953579 13.4798908687619665
  2.4036154243358498 15.0885538517239262 10.6931216199742725
  6.4985952872467809 22.6754724726873391  9.6258386018231690
  2.4035938864460507 16.3814463513943167  7.3066489872096820
  6.4986200889756098 21.3825397159762502 13.0123380113189882
  5.8419189675773087 14.9451710176646841 13.0516395130348322
  1.7469732785661267 22.8188009783399686  7.2673236602469400
  5.8419760817341979 16.5248367637590619  9.6651656676626629
  1.7469545719280135 21.2391919174435060 10.6538381707818477
  4.9707067277769053 13.9617573746610013  6.7803527398378769
  0.8757590746732270 23.8022368873820724 13.5386255173568433
  4.9707328177071757 17.5082364777722077 10.1668643998743882
  0.8757393243107015 20.2557718807346845 10.1521375249584214
  5.7263885139952260 13.2522878558069195  7.7035849018516114
  1.6314259951465224 24.5116946547230548 12.6153765208502957
  5.7263858682354636 18.2177173680561104 11.0901158286926567
  1.6314064349455624 19.5462996356810983  9.2288928287676804
 10.5623800226019551  0.7066944523653931  2.6197565280887640
 14.6574007938803206 11.8813629709900894  4.1531742694992362
 10.5623814280837074  5.5872898282133869  6.0062685146758152
 14.6574148184624633  7.0006767000226633  0.7667059866617584
 11.4004788826022541  1.4717139145088185  3.4525755540738476
 15.4954754101355761 11.1163014264396089  3.3203899590654262
 11.4004770468796277  4.8222668212620237  0.0660973066326607
 15.4954943532171150  7.7657092911953605  6.7068908687619677
 10.5936154243358498  2.5005538517239265  3.9201216199742737
 14.6885952872467804 10.0874724726873399  2.8528386018231697
 10.5935938864460493  3.7934463513943188  0.5336489872096821
 14.6886200889756093  8.7945397159762511  6.2393380113189894
 14.0319189675773082  2.3571710176646867  6.2786395130348334
  9.9369732785661284 10.2308009783399694  0.4943236602469405
 14.0319760817341965  3.9368367637590618  2.8921656676626628
  9.9369545719280143  8.6511919174435068  3.8808381707818480
 13.1607067277769048  1.3737573746610023  0.0073527398378769
  9.0657590746732275 11.2142368873820732  6.7656255173568418
 13.1607328177071743  4.9202364777722076  3.3938643998743871
  9.0657393243107016  7.6677718807346853  3.3791375249584221
 13.9163885139952264  0.6642878558069201  0.9305849018516120
  9.8214259951465213 11.9236946547230556  5.8423765208502960
 13.9163858682354622  5.6297173680561103  4.3171158286926579
  9.8214064349455619  6.9582996356810982  2.4558928287676816
 10.5623800226019551  0.7066944523653931  9.3927565280887659
 14.6574007938803206 11.8813629709900894 10.9261742694992350
 10.5623814280837074  5.5872898282133869 12.7792685146758167
 14.6574148184624633  7.0006767000226633  7.5397059866617591
 11.4004788826022541  1.4717139145088185 10.2255755540738473
 15.4954754101355761 11.1163014264396089 10.0933899590654264
 11.4004770468796277  4.8222668212620237  6.8390973066326604
 15.4954943532171150  7.7657092911953605 13.4798908687619665
 10.5936154243358498  2.5005538517239265 10.6931216199742725
 14.6885952872467804 10.0874724726873399  9.6258386018231690
 10.5935938864460493  3.7934463513943188  7.3066489872096820
 14.6886200889756093  8.7945397159762511 13.0123380113189882
 14.0319189675773082  2.3571710176646867 13.0516395130348322
  9.9369732785661284 10.2308009783399694  7.2673236602469400
 14.0319760817341965  3.9368367637590618  9.6651656676626629
  9.9369545719280143  8.6511919174435068 10.6538381707818477
 13.1607067277769048  1.3737573746610023  6.7803527398378769
  9.0657590746732275 11.2142368873820732 13.5386255173568433
 13.1607328177071743  4.9202364777722076 10.1668643998743882
  9.0657393243107016  7.6677718807346853 10.1521375249584214
 13.9163885139952264  0.6642878558069201  7.7035849018516114
  9.8214259951465213 11.9236946547230556 12.6153765208502957
 13.9163858682354622  5.6297173680561103 11.0901158286926567
  9.8214064349455619  6.9582996356810982  9.2288928287676804
 10.5623800226019551 13.2946944523653947  2.6197565280887640
 14.6574007938803206 24.4693629709900904  4.1531742694992362
 10.5623814280837074 18.1752898282133870  6.0062685146758152
 14.6574148184624633 19.5886767000226634  0.7667059866617584
 11.4004788826022541 14.0597139145088175  3.4525755540738476
 15.4954754101355761 23.7043014264396064  3.3203899590654262
 11.4004770468796277 17.4102668212620237  0.0660973066326607
 15.4954943532171150 20.3537092911953579  6.7068908687619677
 10.5936154243358498 15.0885538517239262  3.9201216199742737
 14.6885952872467804 22.6754724726873391  2.8528386018231697
 10.5935938864460493 16.3814463513943167  0.5336489872096821
 14.6886200889756093 21.3825397159762502  6.2393380113189894
 14.0319189675773082 14.9451710176646841  6.2786395130348334
  9.9369732785661284 22.8188009783399686  0.4943236602469405
 14.0319760817341965 16.5248367637590619  2.8921656676626628
  9.9369545719280143 21.2391919174435060  3.8808381707818480
 13.1607067277769048 13.9617573746610013  0.0073527398378769
  9.0657590746732275 23.8022368873820724  6.7656255173568418
 13.1607328177071743 17.5082364777722077  3.3938643998743871
  9.0657393243107016 20.2557718807346845  3.3791375249584221
 13.9163885139952264 13.2522878558069195  0.9305849018516120
  9.8214259951465213 24.5116946547230548  5.8423765208502960
 13.9163858682354622 18.2177173680561104  4.3171158286926579
  9.8214064349455619 19.5462996356810983  2.4558928287676816
 10.5623800226019551 13.2946944523653947  9.3927565280887659
 14.6574007938803206 24.4693629709900904 10.9261742694992350
 10.5623814280837074 18.1752898282133870 12.7792685146758167
 14.6574148184624633 19.5886767000226634  7.5397059866617591
 11.4004788826022541 14.0597139145088175 10.2255755540738473
 15.4954754101355761 23.7043014264396064 10.0933899590654264
 11.4004770468796277 17.4102668212620237  6.8390973066326604
 15.4954943532171150 20.3537092911953579 13.4798908687619665
 10.5936154243358498 15.0885538517239262 10.6931216199742725
 14.6885952872467804 22.6754724726873391  9.6258386018231690
 10.5935938864460493 16.3814463513943167  7.3066489872096820
 14.6886200889756093 21.3825397159762502 13.0123380113189882
 14.0319189675773082 14.9451710176646841 13.0516395130348322
  9.9369732785661284 22.8188009783399686  7.2673236602469400
 14.0319760817341965 16.5248367637590619  9.6651656676626629
  9.9369545719280143 21.2391919174435060 10.6538381707818477
 13.1607067277769048 13.9617573746610013  6.7803527398378769
  9.0657590746732275 23.8022368873820724 13.5386255173568433
 13.1607328177071743 17.5082364777722077 10.1668643998743882
  9.0657393243107016 20.2557718807346845 10.1521375249584214
 13.9163885139952264 13.2522878558069195  7.7035849018516114
  9.8214259951465213 24.5116946547230548 12.6153765208502957
 13.9163858682354622 18.2177173680561104 11.0901158286926567
  9.8214064349455619 19.5462996356810983  9.2288928287676804
  0.3338818069204053  2.9371277438008221  3.4539700658492580
  4.4288628911420735  9.6509495955998226  3.3189972552636489
  0.3338631742522952  3.3568886789163535  0.0674799216767769
  4.4288819013681797  9.2310874974982031  6.7055091691374153
  2.6180241626145508  3.3365259134090204  4.5745881476013945
  6.7130006998085143  9.2514951103384782  2.1983995478840250
  2.6180017491567917  2.9574796831353378  1.1881180059191940
  6.7130163835647849  9.6305114098377747  5.5848797833833235
  4.2527681249657689  1.2972866827980065  3.6835469760155988
  0.1577829045540891 11.2906971449093465  3.0894354164166655
  4.2527575044642916  4.9966898866667693  0.2970576075003065
  0.1577824318969008  7.5912952701626679  6.4759190827621920
  2.6011694100234970 12.3946947093690323  2.0563944641471039
  6.6961927832408907  0.1933726104550505  4.7165315595228030
  2.6011825993524496  6.4872793515189358  5.4428908385072479
  6.6962097596957868  6.1006811743704432  1.3300701745705292
  7.7813697746171560  1.0258757402351601  1.5563965165191476
  3.6864072589976153 11.5621087803731211  5.2165487740845302
  7.7813862342020990  5.2681813932946442  4.9429301344515997
  3.6863910754716360  7.3198766781910631  1.8300739686019245
  5.4810664268031069 12.4066329235668960  1.5617409056083607
  1.3861155591150858  0.1813670764331035  5.2112431645262349
  5.4810447257128390  6.4753715810696191  4.9482589442327987
  1.3860856418990415  6.1126394325445057  1.8247501676118560
  3.9371599323667770  1.2022824486306047  6.5112834135322153
  8.0322175681030981 11.3857348182741092  0.2617166204056067
  3.9371886380591810  5.0916846967756832  3.1247847925788972
  8.0321958890905982  7.4962874949479241  3.6482284533078140
  5.6463776194634674  3.1229961037929148  5.5369880862313536
  1.5514162784838825  9.4649913175680958  1.2359764536417088
  5.6464607008870349  3.1710015469913237  2.1505193929305930
  1.5514162971236114  9.4170156586423932  4.6224840258029163
  0.3338818069204053  2.9371277438008221 10.2269700658492582
  4.4288628911420735  9.6509495955998226 10.0919972552636494
  0.3338631742522952  3.3568886789163535  6.8404799216767778
  4.4288819013681797  9.2310874974982031 13.4785091691374159
  2.6180241626145508  3.3365259134090204 11.3475881476013942
  6.7130006998085143  9.2514951103384782  8.9713995478840243
  2.6180017491567917  2.9574796831353378  7.9611180059191939
  6.7130163835647849  9.6305114098377747 12.3578797833833249
  4.2527681249657689  1.2972866827980065 10.4565469760155985
  0.1577829045540891 11.2906971449093465  9.8624354164166661
  4.2527575044642916  4.9966898866667693  7.0700576075003072
  0.1577824318969008  7.5912952701626679 13.2489190827621925
  2.6011694100234970 12.3946947093690323  8.8293944641471036
  6.6961927832408907  0.1933726104550505 11.4895315595228045
  2.6011825993524496  6.4872793515189358 12.2158908385072476
  6.6962097596957868  6.1006811743704432  8.1030701745705294
  7.7813697746171560  1.0258757402351601  8.3293965165191466
  3.6864072589976153 11.5621087803731211 11.9895487740845290
  7.7813862342020990  5.2681813932946442 11.7159301344516003
  3.6863910754716360  7.3198766781910631  8.6030739686019242
  5.4810664268031069 12.4066329235668960  8.3347409056083599
  1.3861155591150858  0.1813670764331035 11.9842431645262355
  5.4810447257128390  6.4753715810696191 11.7212589442327992
  1.3860856418990415  6.1126394325445057  8.5977501676118564
  3.9371599323667770  1.2022824486306047 13.2842834135322168
  8.0322175681030981 11.3857348182741092  7.0347166204056064
  3.9371886380591810  5.0916846967756832  9.8977847925788964
  8.0321958890905982  7.4962874949479241 10.4212284533078137
  5.6463776194634674  3.1229961037929148 12.3099880862313533
  1.5514162784838825  9.4649913175680958  8.0089764536417078
  5.6464607008870349  3.1710015469913237  8.9235193929305936
  1.5514162971236114  9.4170156586423932 11.3954840258029169
  0.3338818069204053 15.5251277438008213  3.4539700658492580
  4.4288628911420735 22.2389495955998200  3.3189972552636489
  0.3338631742522952 15.9448886789163549  0.0674799216767769
  4.4288819013681797 21.8190874974982023  6.7055091691374153
  2.6180241626145508 15.9245259134090205  4.5745881476013945
  6.7130006998085143 21.8394951103384756  2.1983995478840250
  2.6180017491567917 15.5454796831353370  1.1881180059191940
  6.7130163835647849 22.2185114098377738  5.5848797833833235
  4.2527681249657689 13.8852866827980037  3.6835469760155988
  0.1577829045540891 23.8786971449093457  3.0894354164166655
  4.2527575044642916 17.5846898866667694  0.2970576075003065
  0.1577824318969008 20.1792952701626689  6.4759190827621920
  2.6011694100234970 24.9826947093690315  2.0563944641471039
  6.6961927832408907 12.7813726104550494  4.7165315595228030
  2.6011825993524496 19.0752793515189367  5.4428908385072479
  6.6962097596957868 18.6886811743704442  1.3300701745705292
  7.7813697746171560 13.6138757402351587  1.5563965165191476
  3.6864072589976153 24.1501087803731203  5.2165487740845302
  7.7813862342020990 17.8561813932946443  4.9429301344515997
  3.6863910754716360 19.9078766781910623  1.8300739686019245
  5.4810664268031069 24.9946329235668969  1.5617409056083607
  1.3861155591150858 12.7693670764331024  5.2112431645262349
  5.4810447257128390 19.0633715810696174  4.9482589442327987
  1.3860856418990415 18.7006394325445058  1.8247501676118560
  3.9371599323667770 13.7902824486306042  6.5112834135322153
  8.0322175681030981 23.9737348182741101  0.2617166204056067
  3.9371886380591810 17.6796846967756807  3.1247847925788972
  8.0321958890905982 20.0842874949479224  3.6482284533078140
  5.6463776194634674 15.7109961037929118  5.5369880862313536
  1.5514162784838825 22.0529913175680932  1.2359764536417088
  5.6464607008870349 15.7590015469913229  2.1505193929305930
  1.5514162971236114 22.0050156586423924  4.6224840258029163
  0.3338818069204053 15.5251277438008213 10.2269700658492582
  4.4288628911420735 22.2389495955998200 10.0919972552636494
  0.3338631742522952 15.9448886789163549  6.8404799216767778
  4.4288819013681797 21.8190874974982023 13.4785091691374159
  2.6180241626145508 15.9245259134090205 11.3475881476013942
  6.7130006998085143 21.8394951103384756  8.9713995478840243
  2.6180017491567917 15.5454796831353370  7.9611180059191939
  6.7130163835647849 22.2185114098377738 12.3578797833833249
  4.2527681249657689 13.8852866827980037 10.4565469760155985
  0.1577829045540891 23.8786971449093457  9.8624354164166661
  4.2527575044642916 17.5846898866667694  7.0700576075003072
  0.1577824318969008 20.1792952701626689 13.2489190827621925
  2.6011694100234970 24.9826947093690315  8.8293944641471036
  6.6961927832408907 12.7813726104550494 11.4895315595228045
  2.6011825993524496 19.0752793515189367 12.2158908385072476
  6.6962097596957868 18.6886811743704442  8.1030701745705294
  7.7813697746171560 13.6138757402351587  8.3293965165191466
  3.6864072589976153 24.1501087803731203 11.9895487740845290
  7.7813862342020990 17.8561813932946443 11.7159301344516003
  3.6863910754716360 19.9078766781910623  8.6030739686019242
  5.4810664268031069 24.9946329235668969  8.3347409056083599
  1.3861155591150858 12.7693670764331024 11.9842431645262355
  5.4810447257128390 19.0633715810696174 11.7212589442327992
  1.3860856418990415 18.7006394325445058  8.5977501676118564
  3.9371599323667770 13.7902824486306042 13.2842834135322168
  8.0322175681030981 23.9737348182741101  7.0347166204056064
  3.9371886380591810 17.6796846967756807  9.8977847925788964
  8.0321958890905982 20.0842874949479224 10.4212284533078137
  5.6463776194634674 15.7109961037929118 12.3099880862313533
  1.5514162784838825 22.0529913175680932  8.0089764536417078
  5.6464607008870349 15.7590015469913229  8.9235193929305936
  1.5514162971236114 22.0050156586423924 11.3954840258029169
  8.5238818069204054  2.9371277438008221  3.4539700658492580
 12.6188628911420739  9.6509495955998226  3.3189972552636489
  8.5238631742522948  3.3568886789163535  0.0674799216767769
 12.6188819013681801  9.2310874974982031  6.7055091691374153
 10.8080241626145508  3.3365259134090204  4.5745881476013945
 14.9030006998085156  9.2514951103384782  2.1983995478840250
 10.8080017491567908  2.9574796831353378  1.1881180059191940
 14.9030163835647844  9.6305114098377747  5.5848797833833235
 12.4427681249657667  1.2972866827980065  3.6835469760155988
  8.3477829045540890 11.2906971449093465  3.0894354164166655
 12.4427575044642911  4.9966898866667693  0.2970576075003065
  8.3477824318969009  7.5912952701626679  6.4759190827621920
 10.7911694100234961 12.3946947093690323  2.0563944641471039
 14.8861927832408920  0.1933726104550505  4.7165315595228030
 10.7911825993524495  6.4872793515189358  5.4428908385072479
 14.8862097596957881  6.1006811743704432  1.3300701745705292
 15.9713697746171555  1.0258757402351601  1.5563965165191476
 11.8764072589976148 11.5621087803731211  5.2165487740845302
 15.9713862342020985  5.2681813932946442  4.9429301344515997
 11.8763910754716360  7.3198766781910631  1.8300739686019245
 13.6710664268031064 12.4066329235668960  1.5617409056083607
  9.5761155591150846  0.1813670764331035  5.2112431645262349
 13.6710447257128411  6.4753715810696191  4.9482589442327987
  9.5760856418990414  6.1126394325445057  1.8247501676118560
 12.1271599323667765  1.2022824486306047  6.5112834135322153
 16.2222175681030976 11.3857348182741092  0.2617166204056067
 12.1271886380591809  5.0916846967756832  3.1247847925788972
 16.2221958890905995  7.4962874949479241  3.6482284533078140
 13.8363776194634678  3.1229961037929148  5.5369880862313536
  9.7414162784838823  9.4649913175680958  1.2359764536417088
 13.8364607008870344  3.1710015469913237  2.1505193929305930
  9.7414162971236102  9.4170156586423932  4.6224840258029163
  8.5238818069204054  2.9371277438008221 10.2269700658492582
 12.6188628911420739  9.6509495955998226 10.0919972552636494
  8.5238631742522948  3.3568886789163535  6.8404799216767778
 12.6188819013681801  9.2310874974982031 13.4785091691374159
 10.8080241626145508  3.3365259134090204 11.3475881476013942
 14.9030006998085156  9.2514951103384782  8.9713995478840243
 10.8080017491567908  2.9574796831353378  7.9611180059191939
 14.9030163835647844  9.6305114098377747 12.3578797833833249
 12.4427681249657667  1.2972866827980065 10.4565469760155985
  8.3477829045540890 11.2906971449093465  9.8624354164166661
 12.4427575044642911  4.9966898866667693  7.0700576075003072
  8.3477824318969009  7.5912952701626679 13.2489190827621925
 10.7911694100234961 12.3946947093690323  8.8293944641471036
 14.8861927832408920  0.1933726104550505 11.4895315595228045
 10.7911825993524495  6.4872793515189358 12.2158908385072476
 14.8862097596957881  6.1006811743704432  8.1030701745705294
 15.9713697746171555  1.0258757402351601  8.3293965165191466
 11.8764072589976148 11.5621087803731211 11.9895487740845290
 15.9713862342020985  5.2681813932946442 11.7159301344516003
 11.8763910754716360  7.3198766781910631  8.6030739686019242
 13.6710664268031064 12.4066329235668960  8.3347409056083599
  9.5761155591150846  0.1813670764331035 11.9842431645262355
 13.6710447257128411  6.4753715810696191 11.7212589442327992
  9.5760856418990414  6.1126394325445057  8.5977501676118564
 12.1271599323667765  1.2022824486306047 13.2842834135322168
 16.2222175681030976 11.3857348182741092  7.0347166204056064
 12.1271886380591809  5.0916846967756832  9.8977847925788964
 16.2221958890905995  7.4962874949479241 10.4212284533078137
 13.8363776194634678  3.1229961037929148 12.3099880862313533
  9.7414162784838823  9.4649913175680958  8.0089764536417078
 13.8364607008870344  3.1710015469913237  8.9235193929305936
  9.7414162971236102  9.4170156586423932 11.3954840258029169
  8.5238818069204054 15.5251277438008213  3.4539700658492580
 12.6188628911420739 22.2389495955998200  3.3189972552636489
  8.5238631742522948 15.9448886789163549  0.0674799216767769
 12.6188819013681801 21.8190874974982023  6.7055091691374153
 10.8080241626145508 15.9245259134090205  4.5745881476013945
 14.9030006998085156 21.8394951103384756  2.1983995478840250
 10.8080017491567908 15.5454796831353370  1.1881180059191940
 14.9030163835647844 22.2185114098377738  5.5848797833833235
 12.4427681249657667 13.8852866827980037  3.6835469760155988
  8.3477829045540890 23.8786971449093457  3.0894354164166655
 12.4427575044642911 17.5846898866667694  0.2970576075003065
  8.3477824318969009 20.1792952701626689  6.4759190827621920
 10.7911694100234961 24.9826947093690315  2.0563944641471039
 14.8861927832408920 12.7813726104550494  4.7165315595228030
 10.7911825993524495 19.0752793515189367  5.4428908385072479
 14.8862097596957881 18.6886811743704442  1.3300701745705292
 15.9713697746171555 13.6138757402351587  1.5563965165191476
 11.8764072589976148 24.1501087803731203  5.2165487740845302
 15.9713862342020985 17.8561813932946443  4.9429301344515997
 11.8763910754716360 19.9078766781910623  1.8300739686019245
 13.6710664268031064 24.9946329235668969  1.5617409056083607
  9.5761155591150846 12.7693670764331024  5.2112431645262349
 13.6710447257128411 19.0633715810696174  4.9482589442327987
  9.5760856418990414 18.7006394325445058  1.8247501676118560
 12.1271599323667765 13.7902824486306042  6.5112834135322153
 16.2222175681030976 23.9737348182741101  0.2617166204056067
 12.1271886380591809 17.6796846967756807  3.1247847925788972
 16.2221958890905995 20.0842874949479224  3.6482284533078140
 13.8363776194634678 15.7109961037929118  5.5369880862313536
  9.7414162784838823 22.0529913175680932  1.2359764536417088
 13.8364607008870344 15.7590015469913229  2.1505193929305930
  9.7414162971236102 22.0050156586423924  4.6224840258029163
  8.5238818069204054 15.5251277438008213 10.2269700658492582
 12.6188628911420739 22.2389495955998200 10.0919972552636494
  8.5238631742522948 15.9448886789163549  6.8404799216767778
 12.6188819013681801 21.8190874974982023 13.4785091691374159
 10.8080241626145508 15.9245259134090205 11.3475881476013942
 14.9030006998085156 21.8394951103384756  8.9713995478840243
 10.8080017491567908 15.5454796831353370  7.9611180059191939
 14.9030163835647844 22.2185114098377738 12.3578797833833249
 12.4427681249657667 13.8852866827980037 10.4565469760155985
  8.3477829045540890 23.8786971449093457  9.8624354164166661
 12.4427575044642911 17.5846898866667694  7.0700576075003072
  8.3477824318969009 20.1792952701626689 13.2489190827621925
 10.7911694100234961 24.9826947093690315  8.8293944641471036
 14.8861927832408920 12.7813726104550494 11.4895315595228045
 10.7911825993524495 19.0752793515189367 12.2158908385072476
 14.8862097596957881 18.6886811743704442  8.1030701745705294
 15.9713697746171555 13.6138757402351587  8.3293965165191466
 11.8764072589976148 24.1501087803731203 11.9895487740845290
 15.9713862342020985 17.8561813932946443 11.7159301344516003
 11.8763910754716360 19.9078766781910623  8.6030739686019242
 13.6710664268031064 24.9946329235668969  8.3347409056083599
  9.5761155591150846 12.7693670764331024 11.9842431645262355
 13.6710447257128411 19.0633715810696174 11.7212589442327992
  9.5760856418990414 18.7006394325445058  8.5977501676118564
 12.1271599323667765 13.7902824486306042 13.2842834135322168
 16.2222175681030976 23.9737348182741101  7.0347166204056064
 12.1271886380591809 17.6796846967756807  9.8977847925788964
 16.2221958890905995 20.0842874949479224 10.4212284533078137
 13.8363776194634678 15.7109961037929118 12.3099880862313533
  9.7414162784838823 22.0529913175680932  8.0089764536417078
 13.8364607008870344 15.7590015469913229  8.9235193929305936
  9.7414162971236102 22.0050156586423924 11.3954840258029169
  1.1746783838313799  2.3176976295472662  3.3813180111954648
  5.2696678243589314 10.2703711252908789  3.3916267027872364
  1.1746563076706618  3.9763027436166793  6.7678531583252752
  5.2696883594965707  8.6116654614043320  0.0051468416747256
  1.1330678230621665  1.2273213087104993  2.5720843390091939
  5.2280727308609816 11.3607710018491002  4.2008349503936975
  1.1330704123223005  5.0666827658191487  5.9586036978101768
  5.2280975651636732  7.5212835506916091  0.8143852961304497
  6.9600969278208140  1.2252890111024304  0.9451776430576868
  2.8651227327878206 11.3626595150096659  5.8277669383752286
  6.9601015600132152  5.0687204162801756  4.3317096443796572
  2.8651119301957464  7.5193211787125041  2.4412902316599121
  7.0538480799837355  2.2663545871244630  0.0794187605529156
  2.9588821708265050 10.3216119311077481  6.6935348222842297
  7.0538710712210007  4.0276758611446350  3.4659429254565328
  2.9588731494684017  8.5603756611898447  3.3070508893850388
  1.1746783838313799  2.3176976295472662 10.1543180111954641
  5.2696678243589314 10.2703711252908789 10.1646267027872366
  1.1746563076706618  3.9763027436166793 13.5408531583252731
  5.2696883594965707  8.6116654614043320  6.7781468416747241
  1.1330678230621665  1.2273213087104993  9.3450843390091940
  5.2280727308609816 11.3607710018491002 10.9738349503936981
  1.1330704123223005  5.0666827658191487 12.7316036978101756
  5.2280975651636732  7.5212835506916091  7.5873852961304502
  6.9600969278208140  1.2252890111024304  7.7181776430576861
  2.8651227327878206 11.3626595150096659 12.6007669383752283
  6.9601015600132152  5.0687204162801756 11.1047096443796587
  2.8651119301957464  7.5193211787125041  9.2142902316599127
  7.0538480799837355  2.2663545871244630  6.8524187605529159
  2.9588821708265050 10.3216119311077481 13.4665348222842294
  7.0538710712210007  4.0276758611446350 10.2389429254565325
  2.9588731494684017  8.5603756611898447 10.0800508893850385
  1.1746783838313799 14.9056976295472641  3.3813180111954648
  5.2696678243589314 22.8583711252908799  3.3916267027872364
  1.1746563076706618 16.5643027436166790  6.7678531583252752
  5.2696883594965707 21.1996654614043294  0.0051468416747256
  1.1330678230621665 13.8153213087104980  2.5720843390091939
  5.2280727308609816 23.9487710018490993  4.2008349503936975
  1.1330704123223005 17.6546827658191461  5.9586036978101768