 C  H 
 1.0000000000000000
    16.4506092540867463    0.0000000000000000    0.2329284793048090
     0.0000000000000000   11.9740162852113023    0.0000000000000000
    -9.7909096506771078    0.0000000000000000   14.2217171485620675
 C   H  
 160 128
Cartesian
 -0.9049952158346783  0.1177101617969896  2.3697273672348129
  7.3203094384896943  0.1177101908628350  2.4861915769242966
 -0.9049951900894834  6.1047183270783787  2.3697273330690645
  7.3203094432085631  6.1047183384090777  2.4861915717825473
 -5.8004500082126480  0.1177101950934287  9.4805859029295529
  2.4248546017814676  0.1177101788547517  9.5970501637062622
 -5.8004500300969974  6.1047183191660404  9.4805859331723870
  2.4248546002109119  6.1047183202275050  9.5970501662495646
  4.2348447522168078  5.8692978824885049  4.8575954796865064
 12.4601493632504337  5.8692978697163030  4.9740597422141066
  4.2348447544972503 11.8563060267794729  4.8575954764388456
 12.4601493827562617 11.8563060239418583  4.9740597095005192
 -0.6606100738606090  5.8692978769283926 11.9684540487703863
  7.5646945767531628  5.8692979006852974 12.0849182608859227
 -0.6606100801234640 11.8563060165675402 11.9684540603041576
  7.5646945354376252 11.8563060169828045 12.0849183285732256
  0.1221922884260781  3.1112141532357209  4.7993633620077816
  8.3474969208201895  3.1112141566215543  4.9158275843610584
  0.1221923100283540  9.0982222783024067  4.7993633315374886
  8.3474969470112867  9.0982222761972107  4.9158275495965356
 -4.7732625156251993  3.1112141367185413 11.9102219053559306
  3.4520420963916010  3.1112141418451906 12.0266861750679688
 -4.7732625169347003  9.0982222787040623 11.9102219090912396
  3.4520421175463292  9.0982222647084789 12.0266861482381753
  3.2076572061997051  2.8757937755831926  2.4279594870636338
 11.4329618139314029  2.8757937953610297  2.5444237488913322
  3.2076571990404310  8.8628019248139296  2.4279594962657893
 11.4329618253905334  8.8628019337044943  2.5444237264847929
 -1.6877976351976742  2.8757937862561009  9.5388180871643513
  6.5375069997866593  2.8757937729379681  9.6552823242035917
 -1.6877976175762277  8.8628019177131883  9.5388180581489070
  6.5375070265394841  8.8628018998079447  9.6552822786810957
 -0.1462059501648920  0.9765385658885671  1.5990471609860295
  8.0790986492569932  0.9765385250941104  1.7155114169641146
 -0.1462059749571218  6.9635466739706660  1.5990471783110263
  8.0790986446622313  6.9635466605305059  1.7155114193027774
 -5.0416608084917769  0.9765385183008857  8.7099057561861013
  3.1836438357637675  0.9765385411950772  8.8263699824370097
 -5.0416607869667978  6.9635466886160451  8.7099057384246592
  3.1836438373589808  6.9635466857839319  8.8263699811097975
  3.4760553233929334  5.0104696997262419  5.6282755879270869
 11.7013599664216326  5.0104697185042353  5.7447398120562871
  3.4760553212643694 10.9974778398961721  5.6282755901184052
 11.7013599479239936 10.9974778422885056  5.7447398336302422
 -1.4193995001670141  5.0104697059502472 12.7391341656217651
  6.8059051025979045  5.0104696729186191 12.8555984231192397
 -1.4193994942092922 10.9974778535181184 12.7391341573481096
  6.8059051427029766 10.9974778566653448 12.8555983768730435
 -0.6365967408437048  3.9700425427180597  5.5700435561518562
  7.5887078817366165  3.9700425399255326  5.6865078101666633
 -0.6365967619344858  9.9570507112522133  5.5700435750864079
  7.5887078561175771  9.9570507165273572  5.6865078301563576
 -5.5320515869464861  3.9700425673391435 12.6809021502344947
  2.6932530539604378  3.9700425575222358 12.7973663683157355
 -5.5320515861053865  9.9570507103100656 12.6809021476995838
  2.6932530328367204  9.9570507283959202 12.7973663844007213
  3.9664465279289476  2.0169655459717268  1.6572793806889630
 12.1917511743542786  2.0169655175872787  1.7737436087935983
  3.9664465351778508  8.0039736791438152  1.6572793748140566
 12.1917511639338674  8.0039736684571121  1.7737436237467576
 -0.9290082820266994  2.0169655288567996  8.7681379389622105
  7.2962963365886875  2.0169655466633456  8.8846021767846928
 -0.9290082988512725  8.0039736894309534  8.7681379574324634
  7.2962963109579615  8.0039737149952721  8.8846022070984034
  0.2155026301460483  0.6333882716649866  0.2655979062445019
  8.4408072632290878  0.6333882903313220  0.3820621543432886
  0.2155026261040369  6.6203964196719891  0.2655979229275341
  8.4408072629787814  6.6203964355532534  0.3820621582381589
 -4.6799521905898667  0.6333882901113171  7.3764564922145919
  3.5453524310424731  0.6333882807851288  7.4929207335217267
 -4.6799521917808908  6.6203964271858640  7.3764564883675146
  3.5453524312497757  6.6203964232949000  7.4929207330095116
  3.1143465281435234  5.3536201269401724  6.9617248001485157
 11.3396511507946354  5.3536201224925239  7.0781890449403893
  3.1143465283199490 11.3406282695518090  6.9617247997898444
 11.3396511500317718 11.3406282607125384  7.0781890412702753
 -1.7811083035536404  5.3536201151027019 14.0725833751464098
  6.4441963336485539  5.3536201315410219 14.1890476105164307
 -1.7811083039699585 11.3406282600768904 14.0725833791569990
  6.4441963288172213 11.3406282775578084 14.1890476267535011
 -0.9983053718773143  3.6268922832632216  6.9034927981504097
  7.2269992538163290  3.6268922964512980  7.0199570246897167
 -0.9983053702005443  9.6139004218581547  6.9034927991156874
  7.2269992543860955  9.6139004318694283  7.0199570322840836
 -5.8937601951372471  3.6268922803330148 14.0143513712307151
  2.3315444334032431  3.6268922699119419 14.1308156200669455
 -5.8937601932574131  9.6139004193881430 14.0143513708587566
  2.3315444370057832  9.6139004033295947 14.1308156225836097
  4.3281553228168166  2.3601159553740443  0.3238301044562666
 12.5534599477390731  2.3601159666454414  0.4402943352299797
  4.3281553207080234  8.3471241016489852  0.3238301051182750
 12.5534599444782025  8.3471241175744133  0.4402943327798415
 -0.5672995010763463  2.3601159534106051  7.4346886777168653
  7.6580051275590240  2.3601159398881366  7.5511529304787546
 -0.5672995022755101  8.3471240990175577  7.4346886767944005
  7.6580051275716530  8.3471240881323574  7.5511529231461889
 -3.9061624681553075  1.4985880762592356  6.5526211554941112
  4.3191421588068826  1.4985880874352198  6.6690854090837073
 -3.9061624763904383  7.4855962351455414  6.5526211956637272
  4.3191421579320863  7.4855962311009021  6.6690854126767807
 -8.8016173035239351  1.4985881092428750 13.6634797948686888
 -0.5763126712256511  1.4985880816152140 13.7799439875664795
 -8.8016172848319787  7.4855962237040350 13.6634797146318974
 -0.5763126682168134  7.4855962176702002 13.7799439721649080
  7.2360116854570578  4.4884202291265041  0.6747015784113479
 15.4613163089885663  4.4884202136202207  0.7911658074936229
  7.2360116840404380 10.4754283709802465  0.6747015809294121
 15.4613163007270131 10.4754283636856158  0.7911658366729301
  2.3405568524416105  4.4884202243427795  7.7855601653590307
 10.5658614790352114  4.4884202308426611  7.9020244141106142
  2.3405568531438048 10.4754283659835501  7.7855601625224633
 10.5658614875603494 10.4754283675927731  7.9020243862354542
  3.1233596905051813  4.4920920794508170  0.6164695082294154
 11.3486643107934562  4.4920920822661436  0.7329337607891856
  3.1233596873466158 10.4791002221175447  0.6164695156835461
 11.3486643155374818 10.4791002411473677  0.7329337290696307
 -1.7720951411212822  4.4920920679202307  7.7273281119423993
  6.4532094875460055  4.4920920556648056  7.8437923627845443
 -1.7720951338790414 10.4791002241052382  7.7273280776806024
  6.4532094992830107 10.4791002203678119  7.8437923070808919
  0.2064903304558178  1.4949161705812817  6.6108533934420315
  8.4317949610172480  1.4949161897130996  6.7273176007149766
  0.2064903390719600  7.4819243204278330  6.6108533634488928
  8.4317949707291806  7.4819243381455056  6.7273175699288981
 -4.6889644862649194  1.4949161790082113 13.7217119361920279
  3.5363401338124727  1.4949161577850165 13.8381762191816069
 -4.6889644865153901  7.4819243167550651 13.7217119429053493
  3.5363401423223886  7.4819243013010404 13.8381761973742030
 -3.5636872517969014  1.1312644164783017  5.2661868050835876
  4.6616173787504325  1.1312644113473307  5.3826510298559445
 -3.5636872354352218  7.1182725561843219  5.2661867618423210
  4.6616173804451710  7.1182725541032665  5.3826510260612830
 -8.4591420546256710  1.1312644051063765 12.3770453107499669
 -0.2338374420898826  1.1312644164450856 12.4935095994853000
 -8.4591420881089370  7.1182725515102963 12.3770453963488656
 -0.2338374478066807  7.1182725609490412 12.4935096157257259
  6.8935368226226386  4.8557436439836135  1.9611361545659407
 15.1188414500380421  4.8557436535268668  2.0776004052728840
  6.8935368250876952 10.8427517886367841  1.9611361509993583
 15.1188414667828184 10.8427518008819437  2.0776003706080406
  1.9980820071924090  4.8557436514164101  9.0719947141543447
 10.2233866374532152  4.8557436493691988  9.1884589433632780
  1.9980820059129230 10.8427517941583496  9.0719947172988800
 10.2233866226128889 10.8427517885819142  9.1884589749342354
  2.7808845468044368  4.1247684194041039  1.9029039841258897
 11.0061891844408901  4.1247684119136592  2.0193682074440189
  2.7808845512629312 10.1117765600485328  1.9029039756913071
 11.0061891730989689 10.1117765493888587  2.0193682413010219
 -2.1145702658565981  4.1247684206934467  9.0137625259869267
  6.1107343602471564  4.1247684300910885  9.1302267561162207
 -2.1145702802186279 10.1117765613314408  9.0137625633494167
  6.1107343376796566 10.1117765686365200  9.1302268160503193
  0.5489652167874679  1.8622396162058334  5.3244188579694889
  8.7742698349989983  1.8622396070684595  5.4408831303299570
  0.5489652016476454  7.8492477614791660  5.3244188912628649
  8.7742698177061662  7.8492477549886743  5.4408831656361345
 -4.3464896237635990  1.8622396179232410 12.4352774669252000
  3.8788150184193988  1.8622396250299476 12.5517416609464814
 -4.3464896218626938  7.8492477626216175 12.4352774597652136
  3.8788150050683248  7.8492477736124489 12.5517416859596160
 -1.1762323657520062  0.3998384154299053  3.3805209308165161
  7.0490722575199554  0.3998384156787629  3.4969851799340286
 -1.1762323699148274  6.3868465588326915  3.3805209418480908
  7.0490722568334867  6.3868465583389131  3.4969851815862159
 -6.0716871958801679  0.3998384159676184 10.4913795174168811
  2.1536174337297500  0.3998384155134271 10.6078437502848661
 -6.0716871922882483  6.3868465577506761 10.4913795076297447
  2.1536174339870153  6.3868465580574778 10.6078437494913729
  4.5060822778822942  5.5871694408614019  3.8468021300127715
 12.7313869076241009  5.5871694401340699  3.9632663622244717
  4.5060822774682281 11.5741775835715135  3.8468021310639458
 12.7313869038534282 11.5741775840789654  3.9632663729305353
 -0.3893725479101346  5.5871694414237680 10.9576607060829581
  7.8359320757208586  5.5871694418627689 11.0741249545554581
 -0.3893725466289676 11.5741775834911245 10.9576607023127437
  7.8359320834451767 11.5741775817665626 11.0741249324320261
  0.3934295509494654  3.3933424851772265  3.7885697295931164
  8.6187341762514365  3.3933424839536452  3.9050339750347329
  0.3934295473375384  9.3803506268997925  3.7885697394238775
  8.6187341720454373  9.3803506257485676  3.9050339861957517
 -4.5020252780352639  3.3933424841937208 10.8994283139092509
  3.7232793523081447  3.3933424857139252 11.0158925436710327
 -4.5020252776155099  9.3803506270548436 10.8994283126743561
  3.7232793490770590  9.3803506278075304 11.0158925522376929
  2.9364194984611718  2.5936652973574925  3.4387527483292430
 11.1617241282779958  2.5936652976415950  3.5552169808926370
  2.9364194995651265  8.5806734401811084  3.4387527453856310
 11.1617241257995676  8.5806734391603108  3.5552169882576927
 -1.9590353239148284  2.5936652983325907 10.5496113141829362
  6.2662693025619403  2.5936652989030833 10.6660755545080566
 -1.9590353272167569  8.5806734398047695 10.5496113236536200
  6.2662692974183116  8.5806734395989874 10.6660755694468303
  0.1800565237350203  1.9310775925452539  1.9959040328764650
  8.4053611558445542  1.9310776052624585  2.1123682760533531
  0.1800565279482852  7.9180857456810960  1.9959040357122366
  8.4053611567101481  7.9180857501518229  2.1123682767167486
 -4.7153982956898437  1.9310776072858187  9.1067626111473086
  3.5099063284754219  1.9310776003567733  9.2232268491677676
 -4.7153982991506247  7.9180857416216313  9.1067626092167213
  3.5099063282228999  7.9180857423873459  9.2232268490235150
  3.1497929299861043  4.0559304915316021  5.2314188705711411
 11.3750975546412523  4.0559304860735672  5.3478831092531856
  3.1497929302684935 10.0429386348081113  5.2314188706882838
 11.3750975569992416 10.0429386337648801  5.3478831098841511
 -1.7456618961674271  4.0559304892012307 12.3422774439581922
  6.4796427350776931  4.0559304993189693 12.4587416859916207
 -1.7456618967919248 10.0429386306261339 12.3422774440275571
  6.4796427298383774 10.0429386307287860 12.4587416847222325
 -0.9628590881918440  4.9245817832664720  5.1731868475330396
  7.2624455385410362  4.9245817849792184  5.2896510857955432
 -0.9628590849910086 10.9115899183304830  5.1731868491288546
  7.2624455427251871 10.9115899173938260  5.2896510882847894
 -5.8583139104903070  4.9245817761761650 12.2840454231721186
  2.3669907153294671  4.9245817782349652 12.4005096632952956
 -5.8583139103789224 10.9115899184641325 12.2840454233887240
  2.3669907188753307 10.9115899122997213 12.4005096653442202
  4.2927090859336543  1.0624264757916473  2.0541361679447889
 12.5180137094402326  1.0624264846121507  2.1706004051695995
  4.2927090847502303  7.0494346212294099  2.0541361673022696
 12.5180137104777671  7.0494346253373621  2.1706004050440231
 -0.6027457415463463  1.0624264806128667  9.1649947413942812
  7.6225588876694070  1.0624264745963805  9.2814589832499816
 -0.6027457392924371  7.0494346182418353  9.1649947421432554
  7.6225588909550934  7.0494346102137193  9.2814589840183235
 -3.5858714381264121  2.4526346411704107  6.9531221331312381
  4.6394331875078594  2.4526346363939728  7.0695863702909669
 -3.5858714402530674  8.4396427752855150  6.9531221277790687
  4.6394331873534504  8.4396427783300343  7.0695863698352071
 -8.4813262676829826  2.4526346252463007 14.0639806979202184
 -0.2560216371213646  2.4526346380379476 14.1804449449012218
 -8.4813262639825613  8.4396427833343992 14.0639807081383577
 -0.2560216362781177  8.4396427839622490 14.1804449469860092
  6.9157207295495482  3.5343736107221817  0.2742005313366246
 15.1410253585384886  3.5343736167015898  0.3906647736675418
  6.9157207296097152  9.5213817534149552  0.2742005312677529
 15.1410253574519302  9.5213817546160797  0.3906647705385388
  2.0202659047516507  3.5343736114099493  7.3850591051592280
 10.2455705309214231  3.5343736085201130  7.5015233433225168
  2.0202659048951968  9.5213817545379573  7.3850591054798134
 10.2455705317919445  9.5213817551654127  7.5015233462780193
  2.8030687376666856  5.4461386836391501  0.2159685435263179
 11.0283733649391351  5.4461386836881456  0.3324327825502421
  2.8030687376533523 11.4331468267331022  0.2159685429417013
 11.0283733670224997 11.4331468184916307  0.3324327871590408
 -2.0923860892162387  5.4461386896778414  7.3268271140247458
  6.1329185363643752  5.4461386945912365  7.4432913511264207
 -2.0923860874297122 11.4331468252080750  7.3268271184834459
  6.1329185392513699 11.4331468256148394  7.4432913585090512
  0.5267815517561760  0.5408696653136892  7.0113544801706036
  8.7520861812437261  0.5408696564764861  7.1278187249339666
  0.5267815527701784  6.5278778032299929  7.0113544835239878
  8.7520861820945104  6.5278777947948505  7.1278187281395731
 -4.3686732724091888  0.5408696601034678 14.1222130580843341
  3.8566313518801332  0.5408696704147312 14.2386772915283721
 -4.3686732730161104  6.5278778048356267 14.1222130569610531
  3.8566313521207096  6.5278778111148661 14.2386772934109480
 -2.9647683132007057  1.7986349164053870  4.6548666590489800
  5.2605363124157911  1.7986349153979873  4.7713309008534761
 -2.9647683192325238  7.7856430538209365  4.6548666670650425
  5.2605363117773187  7.7856430574443332  4.7713309016478291
 -7.8602231470437722  1.7986349094434608 11.7657252450432104
  0.3650814856107353  1.7986349138318842 11.8821894767713196
 -7.8602231348064775  7.7856430626472592 11.7657252289122631
  0.3650814877193383  7.7856430582152090 11.8821894738984177
  6.2946182731318068  4.1883729814631234  2.5724563019694608
 14.5199229003219372  4.1883729810986452  2.6889205408861176
  6.2946182723092363 10.1753811232342510  2.5724563029535950
 14.5199228944333960 10.1753811183323908  2.6889205483574883
  1.3991634444569121  4.1883729781382204  9.6833148802140556
  9.6244680702765439  4.1883729771801050  9.7997791215767496
  1.3991634448955981 10.1753811211150289  9.6833148796347004
  9.6244680754931160 10.1753811245155461  9.7997791149572091
  2.1819659122807540  4.7921391438514211  2.5142241969819681
 10.4072705357277506  4.7921391473407944  2.6306884409199793
  2.1819659107624680 10.7791472879048751  2.5142241988634271
 10.4072705400114671 10.7791472864094171  2.6306884350351920
 -2.7134889176662798  4.7921391478477124  9.6250827773532261
  5.5118157094038427  4.7921391474289674  9.7415470174770107
 -2.7134889124212513 10.7791472859087669  9.6250827703728010
  5.5118157177285605 10.7791472828502179  9.7415470063908707
  1.1478838686492068  1.1948690334349106  4.7130987166177860
  9.3731884991825414  1.1948690307753995  4.8295629512504350
  1.1478838740580699  7.1818771711499245  4.7130987097173609
  9.3731885053139052  7.1818771677238997  4.8295629435455600
 -3.7475709512256499  1.1948690285518946 11.8239572838812279
  4.4777336701008821  1.1948690332772365 11.9404215313722641
 -3.7475709519719667  7.1818771716989618 11.8239572849751298
  4.4777336747647327  7.1818771714565957 11.9404215256055206
