 C  N  H 
 1.0000000000000000
    22.0000000000000000    0.0000000000000000    0.0000000000000000
     0.0000000000000000   22.0000000000000000    0.0000000000000000
     0.0000000000000000    0.0000000000000000   22.0000000000000000
 C   N   H  
   3   2   4
Cartesian
  5.9507276022301854  3.9635753464522865  5.0001478718767647
  7.6641242694948772  5.2755136292561611  4.9997523183765162
  6.5674384834483446  6.1033777673357710  4.9998195422067369
  5.4683340253047366  5.2530102822011999  5.0000742610241042
  7.2714424984851407  3.9438099374259488  4.9999579445420599
  4.4993818088890194  5.5334193231369300  5.0001839500086698
  5.3015563300899542  3.1041725867762002  5.0003381425222155
  8.7044986882150734  5.5522321486799449  4.9995701142462439
  6.4603062938426694  7.1729789787355589  4.9997158551966958
