C O H                                   
   1.0000000000000000     
    11.4359923123306846    0.0000001929686730    0.0871899759753590
     0.0000004549925120   13.1867753941857515   -0.0000005451907810
    -1.0841649667718660   -0.0000003694566470   11.2691518588567039
   C    O    H 
    72    32    64
Direct
  0.1555830929999971  0.2774439989999991  0.0676976920000030
  0.1555830929999971  0.7774439989999991  0.0676976920000030
  0.8444168919999981  0.0274438120000013  0.4323022969999997
  0.8444168919999981  0.5274438120000013  0.4323022969999997
  0.8444168219999995  0.2225561600000034  0.9323018309999966
  0.8444168219999995  0.7225561600000034  0.9323018309999966
  0.1555832709999976  0.4725558539999994  0.5676983930000006
  0.1555832709999976  0.9725558539999994  0.5676983930000006
  0.2491870739999982  0.2384154450000011  0.0079681940000000
  0.2491870739999982  0.7384154450000011  0.0079681940000000
  0.7508130499999979  0.4884151250000031  0.4920319320000033
  0.7508130499999979  0.9884151250000031  0.4920319320000033
  0.7508129519999969  0.2615847659999986  0.9920314410000017
  0.7508129519999969  0.7615847659999986  0.9920314410000017
  0.2491872969999989  0.0115842920000020  0.5079689450000018
  0.2491872969999989  0.5115842920000020  0.5079689450000018
  0.3014708509999977  0.1459160400000030  0.0398977110000018
  0.3014708509999977  0.6459160400000030  0.0398977110000018
  0.6985292290000018  0.3959157370000028  0.4601022630000031
  0.6985292290000018  0.8959157370000028  0.4601022630000031
  0.6985290759999998  0.3540841499999985  0.9601017749999983
  0.6985290759999998  0.8540841499999985  0.9601017749999983
  0.3014711430000006  0.1040836649999974  0.5398984699999971
  0.3014711430000006  0.6040836649999974  0.5398984699999971
  0.2625748430000030  0.0904082169999967  0.1340532449999969
  0.2625748430000030  0.5904082169999967  0.1340532449999969
  0.7374249750000033  0.3404081010000013  0.3659464480000025
  0.7374249750000033  0.8404081010000013  0.3659464480000025
  0.7374247859999983  0.4095918479999980  0.8659459839999997
  0.7374247859999983  0.9095918479999980  0.8659459839999997
  0.2625750979999992  0.1595916329999980  0.6340539329999970
  0.2625750979999992  0.6595916329999980  0.6340539329999970
  0.1707368940000009  0.1275316349999969  0.1955199909999976
  0.1707368940000009  0.6275316349999969  0.1955199909999976
  0.8292627379999971  0.3775316640000028  0.3044796340000033
  0.8292627379999971  0.8775316640000028  0.3044796340000033
  0.8292626089999970  0.3724683270000000  0.8044792040000033
  0.8292626089999970  0.8724683270000000  0.8044792040000033
  0.1707370410000024  0.1224682960000010  0.6955205829999969
  0.1707370410000024  0.6224682960000010  0.6955205829999969
  0.1178285200000033  0.2194435259999992  0.1620463650000019
  0.1178285200000033  0.7194435259999992  0.1620463650000019
  0.8821711340000036  0.4694434620000010  0.3379533390000020
  0.8821711340000036  0.9694434620000010  0.3379533390000020
  0.8821709859999984  0.2805565769999987  0.8379528970000010
  0.8821709859999984  0.7805565769999987  0.8379528970000010
  0.1178286880000030  0.0305564610000033  0.6620469920000005
  0.1178286880000030  0.5305564610000033  0.6620469920000005
  0.0919137759999984  0.3743918919999984  0.0390348439999997
  0.0919137759999984  0.8743918919999984  0.0390348439999997
  0.9080861380000016  0.1243917700000026  0.4609649289999993
  0.9080861380000016  0.6243917700000026  0.4609649289999993
  0.9080861759999976  0.1256082100000029  0.9609643650000024
  0.9080861759999976  0.6256082100000029  0.9609643650000024
  0.0919137269999979  0.3756080019999999  0.5390356449999985
  0.0919137269999979  0.8756080019999999  0.5390356449999985
  0.3723262419999998  0.3672289900000010  0.9360046569999980
  0.3723262419999998  0.8672289900000010  0.9360046569999980
  0.6276738339999994  0.1172285919999965  0.5639955130000018
  0.6276738339999994  0.6172285920000036  0.5639955130000018
  0.6276735989999978  0.1327714270000016  0.0639953479999988
  0.6276735989999978  0.6327714270000016  0.0639953479999988
  0.3723265579999975  0.3827709429999970  0.4360050129999991
  0.3723265579999975  0.8827709429999970  0.4360050129999991
  0.4037315019999994  0.4181116689999982  0.8240838489999973
  0.4037315019999994  0.9181116689999982  0.8240838489999973
  0.5962685089999979  0.1681114410000006  0.6759157959999982
  0.5962685089999979  0.6681114410000006  0.6759157959999982
  0.5962683910000024  0.0818886610000007  0.1759156039999965
  0.5962683910000024  0.5818886610000007  0.1759156039999965
  0.4037316869999970  0.3318882689999967  0.3240841040000007
  0.4037316869999970  0.8318882689999967  0.3240841040000007
  0.1258962830000030  0.4265527780000014  0.9457853749999998
  0.1258962830000030  0.9265527780000014  0.9457853749999998
  0.8741038080000010  0.1765526009999974  0.5542145249999990
  0.8741038080000010  0.6765526009999974  0.5542145249999990
  0.8741038539999977  0.0734473520000023  0.0542139789999965
  0.8741038539999977  0.5734473520000023  0.0542139789999965
  0.1258962879999999  0.3234470860000016  0.4457861030000032
  0.1258962879999999  0.8234470860000016  0.4457861030000032
  0.0119130340000027  0.4044923290000000  0.0973712349999971
  0.0119130340000027  0.9044923290000000  0.0973712349999971
  0.9880865390000011  0.1544923439999977  0.4026282250000008
  0.9880865390000011  0.6544923439999977  0.4026282250000008
  0.9880865149999991  0.0955076589999990  0.9026276669999973
  0.9880865149999991  0.5955076589999990  0.9026276669999973
  0.0119130920000003  0.3455077059999994  0.5973719010000025
  0.0119130920000003  0.8455077059999994  0.5973719010000025
  0.2918955210000007  0.2891585890000030  0.9101968610000029
  0.2918955210000007  0.7891585890000030  0.9101968610000029
  0.7081046560000033  0.0391581000000016  0.5898033080000005
  0.7081046560000033  0.5391581000000016  0.5898033080000005
  0.7081046520000029  0.2108417930000002  0.0898028690000032
  0.7081046520000029  0.7108417930000002  0.0898028690000032
  0.2918955820000022  0.4608411469999965  0.4101974960000021
  0.2918955820000022  0.9608411469999965  0.4101974960000021
  0.4099262579999987  0.3880012979999989  0.0368143979999971
  0.4099262579999987  0.8880012979999989  0.0368143979999971
  0.5900741020000027  0.1380005339999997  0.4631856190000008
  0.5900741020000027  0.6380005339999997  0.4631856190000008
  0.5900735620000006  0.1119994869999985  0.9631854900000008
  0.5900735620000006  0.6119994869999985  0.9631854900000008
  0.4099269740000011  0.3619986599999976  0.5368147209999989
  0.4099269740000011  0.8619986599999976  0.5368147209999989
  0.3725380939999994  0.1186729160000013  0.9911894489999966
  0.3725380939999994  0.6186729160000013  0.9911894489999966
  0.6274619539999975  0.3686726359999994  0.5088105000000027
  0.6274619539999975  0.8686726359999994  0.5088105000000027
  0.6274617259999999  0.3813272499999982  0.0088099809999989
  0.6274617259999999  0.8813272499999982  0.0088099809999989
  0.3725384350000027  0.1313267820000021  0.4911902309999974
  0.3725384350000027  0.6313267820000021  0.4911902309999974
  0.3036831550000016  0.0185953699999999  0.1585676870000015
  0.3036831550000016  0.5185953699999999  0.1585676870000015
  0.6963165519999990  0.2685954049999992  0.3414318849999987
  0.6963165519999990  0.7685954049999992  0.3414318849999987
  0.6963163070000036  0.4814045030000003  0.8414314170000026
  0.6963163070000036  0.9814045030000003  0.8414314170000026
  0.3036833789999989  0.2314044809999984  0.6585683189999969
  0.3036833789999989  0.7314044809999984  0.6585683189999969
  0.1401821500000011  0.0852395599999980  0.2686434800000015
  0.1401821500000011  0.5852395599999980  0.2686434800000015
  0.8598173829999993  0.3352396880000015  0.2313559760000032
  0.8598173829999993  0.8352396880000015  0.2313559760000032
  0.8598172900000023  0.4147603660000030  0.7313556439999971
  0.8598172900000023  0.9147603660000030  0.7313556439999971
  0.1401821749999996  0.1647604830000020  0.7686439260000029
  0.1401821749999996  0.6647604830000020  0.7686439260000029
  0.0459930099999966  0.2478759350000033  0.2084735010000003
  0.0459930099999966  0.7478759350000033  0.2084735010000003
  0.9540063919999966  0.4978760930000021  0.2915260210000028
  0.9540063919999966  0.9978760930000021  0.2915260210000028
  0.9540062649999967  0.2521239610000023  0.7915255619999968
  0.9540062649999967  0.7521239610000023  0.7915255619999968
  0.0459930749999984  0.0021241119999971  0.7084740259999975
  0.0459930749999984  0.5021241119999971  0.7084740259999975
  0.4591699260000013  0.4834904699999996  0.8470858510000028
  0.4591699260000013  0.9834904699999996  0.8470858510000028
  0.5408302120000030  0.2334902910000025  0.6529142119999989
  0.5408302120000030  0.7334902910000025  0.6529142119999989
  0.5408300309999987  0.0165098519999987  0.1529142620000030
  0.5408300309999987  0.5165098519999987  0.1529142620000030
  0.4591702230000010  0.2665095629999996  0.3470858789999980
  0.4591702230000010  0.7665095629999996  0.3470858789999980
  0.3239813880000000  0.4411522030000015  0.7709189690000002
  0.3239813880000000  0.9411522030000015  0.7709189690000002
  0.6760188709999966  0.1911518089999973  0.7290810650000026
  0.6760188709999966  0.6911518089999973  0.7290810650000026
  0.6760188639999996  0.0588483069999981  0.2290808589999997
  0.6760188639999996  0.5588483069999981  0.2290808589999997
  0.3239815370000017  0.3088477550000022  0.2709193479999996
  0.3239815370000017  0.8088477550000022  0.2709193479999996
  0.4501170249999973  0.3650979909999990  0.7705789440000004
  0.4501170249999973  0.8650979909999990  0.7705789440000004
  0.5498830160000026  0.1150976770000014  0.7294211640000015
  0.5498830160000026  0.6150976770000014  0.7294211640000015
  0.5498830319999968  0.1349025299999980  0.2294211110000006
  0.5498830319999968  0.6349025299999980  0.2294211110000006
  0.4501170389999984  0.3849020580000015  0.2705791650000009
  0.4501170389999984  0.8849020580000015  0.2705791650000009
  0.0757184260000017  0.4886382569999981  0.9328612770000007
  0.0757184260000017  0.9886382569999981  0.9337445769999988
  0.9242814369999977  0.2386382589999982  0.5662551089999965
  0.9242814369999977  0.7386382589999982  0.5662551089999965
  0.9242815160000006  0.0113616809999968  0.0662544529999991
  0.9242815160000006  0.5113616809999968  0.0662544529999991
  0.0757184149999972  0.2613616289999996  0.4337452680000027
  0.0757184149999972  0.7613616289999996  0.4337452680000027

  0.00000000E+00  0.00000000E+00  0.00000000E+00
  0.00000000E+00  0.00000000E+00  0.00000000E+00
  0.00000000E+00  0.00000000E+00  0.00000000E+00
  0.00000000E+00  0.00000000E+00  0.00000000E+00
  0.00000000E+00  0.00000000E+00  0.00000000E+00
  0.00000000E+00  0.00000000E+00  0.00000000E+00
  0.00000000E+00  0.00000000E+00  0.00000000E+00
  0.00000000E+00  0.00000000E+00  0.00000000E+00
  0.00000000E+00  0.00000000E+00  0.00000000E+00
  0.00000000E+00  0.00000000E+00  0.00000000E+00
  0.00000000E+00  0.00000000E+00  0.00000000E+00
  0.00000000E+00  0.00000000E+00  0.00000000E+00
  0.00000000E+00  0.00000000E+00  0.00000000E+00
  0.00000000E+00  0.00000000E+00  0.00000000E+00
  0.00000000E+00  0.00000000E+00  0.00000000E+00
  0.00000000E+00  0.00000000E+00  0.00000000E+00
  0.00000000E+00  0.00000000E+00  0.00000000E+00
  0.00000000E+00  0.00000000E+00  0.00000000E+00
  0.00000000E+00  0.00000000E+00  0.00000000E+00
  0.00000000E+00  0.00000000E+00  0.00000000E+00
  0.00000000E+00  0.00000000E+00  0.00000000E+00
  0.00000000E+00  0.00000000E+00  0.00000000E+00
  0.00000000E+00  0.00000000E+00  0.00000000E+00
  0.00000000E+00  0.00000000E+00  0.00000000E+00
  0.00000000E+00  0.00000000E+00  0.00000000E+00
  0.00000000E+00  0.00000000E+00  0.00000000E+00
  0.00000000E+00  0.00000000E+00  0.00000000E+00
  0.00000000E+00  0.00000000E+00  0.00000000E+00
  0.00000000E+00  0.00000000E+00  0.00000000E+00
  0.00000000E+00  0.00000000E+00  0.00000000E+00
  0.00000000E+00  0.00000000E+00  0.00000000E+00
  0.00000000E+00  0.00000000E+00  0.00000000E+00
  0.00000000E+00  0.00000000E+00  0.00000000E+00
  0.00000000E+00  0.00000000E+00  0.00000000E+00
  0.00000000E+00  0.00000000E+00  0.00000000E+00
  0.00000000E+00  0.00000000E+00  0.00000000E+00
  0.00000000E+00  0.00000000E+00  0.00000000E+00
  0.00000000E+00  0.00000000E+00  0.00000000E+00
  0.00000000E+00  0.00000000E+00  0.00000000E+00
  0.00000000E+00  0.00000000E+00  0.00000000E+00
  0.00000000E+00  0.00000000E+00  0.00000000E+00
  0.00000000E+00  0.00000000E+00  0.00000000E+00
  0.00000000E+00  0.00000000E+00  0.00000000E+00
  0.00000000E+00  0.00000000E+00  0.00000000E+00
  0.00000000E+00  0.00000000E+00  0.00000000E+00
  0.00000000E+00  0.00000000E+00  0.00000000E+00
  0.00000000E+00  0.00000000E+00  0.00000000E+00
  0.00000000E+00  0.00000000E+00  0.00000000E+00
  0.00000000E+00  0.00000000E+00  0.00000000E+00
  0.00000000E+00  0.00000000E+00  0.00000000E+00
  0.00000000E+00  0.00000000E+00  0.00000000E+00
  0.00000000E+00  0.00000000E+00  0.00000000E+00
  0.00000000E+00  0.00000000E+00  0.00000000E+00
  0.00000000E+00  0.00000000E+00  0.00000000E+00
  0.00000000E+00  0.00000000E+00  0.00000000E+00
  0.00000000E+00  0.00000000E+00  0.00000000E+00
  0.00000000E+00  0.00000000E+00  0.00000000E+00
  0.00000000E+00  0.00000000E+00  0.00000000E+00
  0.00000000E+00  0.00000000E+00  0.00000000E+00
  0.00000000E+00  0.00000000E+00  0.00000000E+00
  0.00000000E+00  0.00000000E+00  0.00000000E+00
  0.00000000E+00  0.00000000E+00  0.00000000E+00
  0.00000000E+00  0.00000000E+00  0.00000000E+00
  0.00000000E+00  0.00000000E+00  0.00000000E+00
  0.00000000E+00  0.00000000E+00  0.00000000E+00
  0.00000000E+00  0.00000000E+00  0.00000000E+00
  0.00000000E+00  0.00000000E+00  0.00000000E+00
  0.00000000E+00  0.00000000E+00  0.00000000E+00
  0.00000000E+00  0.00000000E+00  0.00000000E+00
  0.00000000E+00  0.00000000E+00  0.00000000E+00
  0.00000000E+00  0.00000000E+00  0.00000000E+00
  0.00000000E+00  0.00000000E+00  0.00000000E+00
  0.00000000E+00  0.00000000E+00  0.00000000E+00
  0.00000000E+00  0.00000000E+00  0.00000000E+00
  0.00000000E+00  0.00000000E+00  0.00000000E+00
  0.00000000E+00  0.00000000E+00  0.00000000E+00
  0.00000000E+00  0.00000000E+00  0.00000000E+00
  0.00000000E+00  0.00000000E+00  0.00000000E+00
  0.00000000E+00  0.00000000E+00  0.00000000E+00
  0.00000000E+00  0.00000000E+00  0.00000000E+00
  0.00000000E+00  0.00000000E+00  0.00000000E+00
  0.00000000E+00  0.00000000E+00  0.00000000E+00
  0.00000000E+00  0.00000000E+00  0.00000000E+00
  0.00000000E+00  0.00000000E+00  0.00000000E+00
  0.00000000E+00  0.00000000E+00  0.00000000E+00
  0.00000000E+00  0.00000000E+00  0.00000000E+00
  0.00000000E+00  0.00000000E+00  0.00000000E+00
  0.00000000E+00  0.00000000E+00  0.00000000E+00
  0.00000000E+00  0.00000000E+00  0.00000000E+00
  0.00000000E+00  0.00000000E+00  0.00000000E+00
  0.00000000E+00  0.00000000E+00  0.00000000E+00
  0.00000000E+00  0.00000000E+00  0.00000000E+00
  0.00000000E+00  0.00000000E+00  0.00000000E+00
  0.00000000E+00  0.00000000E+00  0.00000000E+00
  0.00000000E+00  0.00000000E+00  0.00000000E+00
  0.00000000E+00  0.00000000E+00  0.00000000E+00
  0.00000000E+00  0.00000000E+00  0.00000000E+00
  0.00000000E+00  0.00000000E+00  0.00000000E+00
  0.00000000E+00  0.00000000E+00  0.00000000E+00
  0.00000000E+00  0.00000000E+00  0.00000000E+00
  0.00000000E+00  0.00000000E+00  0.00000000E+00
  0.00000000E+00  0.00000000E+00  0.00000000E+00
  0.00000000E+00  0.00000000E+00  0.00000000E+00
  0.00000000E+00  0.00000000E+00  0.00000000E+00
  0.00000000E+00  0.00000000E+00  0.00000000E+00
  0.00000000E+00  0.00000000E+00  0.00000000E+00
  0.00000000E+00  0.00000000E+00  0.00000000E+00
  0.00000000E+00  0.00000000E+00  0.00000000E+00
  0.00000000E+00  0.00000000E+00  0.00000000E+00
  0.00000000E+00  0.00000000E+00  0.00000000E+00
  0.00000000E+00  0.00000000E+00  0.00000000E+00
  0.00000000E+00  0.00000000E+00  0.00000000E+00
  0.00000000E+00  0.00000000E+00  0.00000000E+00
  0.00000000E+00  0.00000000E+00  0.00000000E+00
  0.00000000E+00  0.00000000E+00  0.00000000E+00
  0.00000000E+00  0.00000000E+00  0.00000000E+00
  0.00000000E+00  0.00000000E+00  0.00000000E+00
  0.00000000E+00  0.00000000E+00  0.00000000E+00
  0.00000000E+00  0.00000000E+00  0.00000000E+00
  0.00000000E+00  0.00000000E+00  0.00000000E+00
  0.00000000E+00  0.00000000E+00  0.00000000E+00
  0.00000000E+00  0.00000000E+00  0.00000000E+00
  0.00000000E+00  0.00000000E+00  0.00000000E+00
  0.00000000E+00  0.00000000E+00  0.00000000E+00
  0.00000000E+00  0.00000000E+00  0.00000000E+00
  0.00000000E+00  0.00000000E+00  0.00000000E+00
  0.00000000E+00  0.00000000E+00  0.00000000E+00
  0.00000000E+00  0.00000000E+00  0.00000000E+00
  0.00000000E+00  0.00000000E+00  0.00000000E+00
  0.00000000E+00  0.00000000E+00  0.00000000E+00
  0.00000000E+00  0.00000000E+00  0.00000000E+00
  0.00000000E+00  0.00000000E+00  0.00000000E+00
  0.00000000E+00  0.00000000E+00  0.00000000E+00
  0.00000000E+00  0.00000000E+00  0.00000000E+00
  0.00000000E+00  0.00000000E+00  0.00000000E+00
  0.00000000E+00  0.00000000E+00  0.00000000E+00
  0.00000000E+00  0.00000000E+00  0.00000000E+00
  0.00000000E+00  0.00000000E+00  0.00000000E+00
  0.00000000E+00  0.00000000E+00  0.00000000E+00
  0.00000000E+00  0.00000000E+00  0.00000000E+00
  0.00000000E+00  0.00000000E+00  0.00000000E+00
  0.00000000E+00  0.00000000E+00  0.00000000E+00
  0.00000000E+00  0.00000000E+00  0.00000000E+00
  0.00000000E+00  0.00000000E+00  0.00000000E+00
  0.00000000E+00  0.00000000E+00  0.00000000E+00
  0.00000000E+00  0.00000000E+00  0.00000000E+00
  0.00000000E+00  0.00000000E+00  0.00000000E+00
  0.00000000E+00  0.00000000E+00  0.00000000E+00
  0.00000000E+00  0.00000000E+00  0.00000000E+00
  0.00000000E+00  0.00000000E+00  0.00000000E+00
  0.00000000E+00  0.00000000E+00  0.00000000E+00
  0.00000000E+00  0.00000000E+00  0.00000000E+00
  0.00000000E+00  0.00000000E+00  0.00000000E+00
  0.00000000E+00  0.00000000E+00  0.00000000E+00
  0.00000000E+00  0.00000000E+00  0.00000000E+00
  0.00000000E+00  0.00000000E+00  0.00000000E+00
  0.00000000E+00  0.00000000E+00  0.00000000E+00
  0.00000000E+00  0.00000000E+00  0.00000000E+00
  0.00000000E+00  0.00000000E+00  0.00000000E+00
  0.00000000E+00  0.00000000E+00  0.00000000E+00
  0.00000000E+00  0.00000000E+00  0.00000000E+00
  0.00000000E+00  0.00000000E+00  0.00000000E+00
  0.00000000E+00  0.00000000E+00  0.00000000E+00
  0.00000000E+00  0.00000000E+00  0.00000000E+00
  0.00000000E+00  0.00000000E+00  0.00000000E+00
  0.00000000E+00  0.00000000E+00  0.00000000E+00
  0.00000000E+00  0.00000000E+00  0.00000000E+00
  0.00000000E+00  0.00000000E+00  0.00000000E+00
