super cell
        1.0000000000
  16.815823424995074   0.000000000000000   0.000000000000000
   0.000000000000000  16.815823424995074   0.000000000000000
   0.000000000000000   0.000000000000000  16.815823424995074
  108  216
 Direct
   0.019995928809424   0.019995925220599   0.019995925025317
   0.353329262142757   0.019995925220599   0.019995925025317
   0.686662595476091   0.019995925220599   0.019995925025317
   0.019995928809424   0.353329258553932   0.019995925025317
   0.353329262142757   0.353329258553932   0.019995925025317
   0.686662595476091   0.353329258553932   0.019995925025317
   0.019995928809424   0.686662591887265   0.019995925025317
   0.353329262142757   0.686662591887265   0.019995925025317
   0.686662595476091   0.686662591887265   0.019995925025317
   0.019995928809424   0.019995925220599   0.353329258358651
   0.353329262142757   0.019995925220599   0.353329258358651
   0.686662595476091   0.019995925220599   0.353329258358651
   0.019995928809424   0.353329258553932   0.353329258358651
   0.353329262142757   0.353329258553932   0.353329258358651
   0.686662595476091   0.353329258553932   0.353329258358651
   0.019995928809424   0.686662591887265   0.353329258358651
   0.353329262142757   0.686662591887265   0.353329258358651
   0.686662595476091   0.686662591887265   0.353329258358651
   0.019995928809424   0.019995925220599   0.686662591691984
   0.353329262142757   0.019995925220599   0.686662591691984
   0.686662595476091   0.019995925220599   0.686662591691984
   0.019995928809424   0.353329258553932   0.686662591691984
   0.353329262142757   0.353329258553932   0.686662591691984
   0.686662595476091   0.353329258553932   0.686662591691984
   0.019995928809424   0.686662591887265   0.686662591691984
   0.353329262142757   0.686662591887265   0.686662591691984
   0.686662595476091   0.686662591887265   0.686662591691984
   0.186662592536891   0.019995922664971   0.186662587762335
   0.519995925870224   0.019995922664971   0.186662587762335
   0.853329259203557   0.019995922664971   0.186662587762335
   0.186662592536891   0.353329255998304   0.186662587762335
   0.519995925870224   0.353329255998304   0.186662587762335
   0.853329259203557   0.353329255998304   0.186662587762335
   0.186662592536891   0.686662589331637   0.186662587762335
   0.519995925870224   0.686662589331637   0.186662587762335
   0.853329259203557   0.686662589331637   0.186662587762335
   0.186662592536891   0.019995922664971   0.519995921095668
   0.519995925870224   0.019995922664971   0.519995921095668
   0.853329259203557   0.019995922664971   0.519995921095668
   0.186662592536891   0.353329255998304   0.519995921095668
   0.519995925870224   0.353329255998304   0.519995921095668
   0.853329259203557   0.353329255998304   0.519995921095668
   0.186662592536891   0.686662589331637   0.519995921095668
   0.519995925870224   0.686662589331637   0.519995921095668
   0.853329259203557   0.686662589331637   0.519995921095668
   0.186662592536891   0.019995922664971   0.853329254429001
   0.519995925870224   0.019995922664971   0.853329254429001
   0.853329259203557   0.019995922664971   0.853329254429001
   0.186662592536891   0.353329255998304   0.853329254429001
   0.519995925870224   0.353329255998304   0.853329254429001
   0.853329259203557   0.353329255998304   0.853329254429001
   0.186662592536891   0.686662589331637   0.853329254429001
   0.519995925870224   0.686662589331637   0.853329254429001
   0.853329259203557   0.686662589331637   0.853329254429001
   0.019995925926544   0.186662588336261   0.186662589486997
   0.353329259259877   0.186662588336261   0.186662589486997
   0.686662592593211   0.186662588336261   0.186662589486997
   0.019995925926544   0.519995921669595   0.186662589486997
   0.353329259259877   0.519995921669595   0.186662589486997
   0.686662592593211   0.519995921669595   0.186662589486997
   0.019995925926544   0.853329255002928   0.186662589486997
   0.353329259259877   0.853329255002928   0.186662589486997
   0.686662592593211   0.853329255002928   0.186662589486997
   0.019995925926544   0.186662588336261   0.519995922820331
   0.353329259259877   0.186662588336261   0.519995922820331
   0.686662592593211   0.186662588336261   0.519995922820331
   0.019995925926544   0.519995921669595   0.519995922820331
   0.353329259259877   0.519995921669595   0.519995922820331
   0.686662592593211   0.519995921669595   0.519995922820331
   0.019995925926544   0.853329255002928   0.519995922820331
   0.353329259259877   0.853329255002928   0.519995922820331
   0.686662592593211   0.853329255002928   0.519995922820331
   0.019995925926544   0.186662588336261   0.853329256153664
   0.353329259259877   0.186662588336261   0.853329256153664
   0.686662592593211   0.186662588336261   0.853329256153664
   0.019995925926544   0.519995921669595   0.853329256153664
   0.353329259259877   0.519995921669595   0.853329256153664
   0.686662592593211   0.519995921669595   0.853329256153664
   0.019995925926544   0.853329255002928   0.853329256153664
   0.353329259259877   0.853329255002928   0.853329256153664
   0.686662592593211   0.853329255002928   0.853329256153664
   0.186662590924281   0.186662590070696   0.019995923453744
   0.519995924257615   0.186662590070696   0.019995923453744
   0.853329257590948   0.186662590070696   0.019995923453744
   0.186662590924281   0.519995923404029   0.019995923453744
   0.519995924257615   0.519995923404029   0.019995923453744
   0.853329257590948   0.519995923404029   0.019995923453744
   0.186662590924281   0.853329256737363   0.019995923453744
   0.519995924257615   0.853329256737363   0.019995923453744
   0.853329257590948   0.853329256737363   0.019995923453744
   0.186662590924281   0.186662590070696   0.353329256787077
   0.519995924257615   0.186662590070696   0.353329256787077
   0.853329257590948   0.186662590070696   0.353329256787077
   0.186662590924281   0.519995923404029   0.353329256787077
   0.519995924257615   0.519995923404029   0.353329256787077
   0.853329257590948   0.519995923404029   0.353329256787077
   0.186662590924281   0.853329256737363   0.353329256787077
   0.519995924257615   0.853329256737363   0.353329256787077
   0.853329257590948   0.853329256737363   0.353329256787077
   0.186662590924281   0.186662590070696   0.686662590120411
   0.519995924257615   0.186662590070696   0.686662590120411
   0.853329257590948   0.186662590070696   0.686662590120411
   0.186662590924281   0.519995923404029   0.686662590120411
   0.519995924257615   0.519995923404029   0.686662590120411
   0.853329257590948   0.519995923404029   0.686662590120411
   0.186662590924281   0.853329256737363   0.686662590120411
   0.519995924257615   0.853329256737363   0.686662590120411
   0.853329257590948   0.853329256737363   0.686662590120411
   0.060159258211647   0.060159252503788   0.060159254246660
   0.393492591544980   0.060159252503788   0.060159254246660
   0.726825924878313   0.060159252503788   0.060159254246660
   0.060159258211647   0.393492585837121   0.060159254246660
   0.393492591544980   0.393492585837121   0.060159254246660
   0.726825924878313   0.393492585837121   0.060159254246660
   0.060159258211647   0.726825919170455   0.060159254246660
   0.393492591544980   0.726825919170455   0.060159254246660
   0.726825924878313   0.726825919170455   0.060159254246660
   0.060159258211647   0.060159252503788   0.393492587579993
   0.393492591544980   0.060159252503788   0.393492587579993
   0.726825924878313   0.060159252503788   0.393492587579993
   0.060159258211647   0.393492585837121   0.393492587579993
   0.393492591544980   0.393492585837121   0.393492587579993
   0.726825924878313   0.393492585837121   0.393492587579993
   0.060159258211647   0.726825919170455   0.393492587579993
   0.393492591544980   0.726825919170455   0.393492587579993
   0.726825924878313   0.726825919170455   0.393492587579993
   0.060159258211647   0.060159252503788   0.726825920913327
   0.393492591544980   0.060159252503788   0.726825920913327
   0.726825924878313   0.060159252503788   0.726825920913327
   0.060159258211647   0.393492585837121   0.726825920913327
   0.393492591544980   0.393492585837121   0.726825920913327
   0.726825924878313   0.393492585837121   0.726825920913327
   0.060159258211647   0.726825919170455   0.726825920913327
   0.393492591544980   0.726825919170455   0.726825920913327
   0.726825924878313   0.726825919170455   0.726825920913327
   0.313165925765955   0.313165926179687   0.313165924360203
   0.646499259099288   0.313165926179687   0.313165924360203
   0.979832592432621   0.313165926179687   0.313165924360203
   0.313165925765955   0.646499259513020   0.313165924360203
   0.646499259099288   0.646499259513020   0.313165924360203
   0.979832592432621   0.646499259513020   0.313165924360203
   0.313165925765955   0.979832592846353   0.313165924360203
   0.646499259099288   0.979832592846353   0.313165924360203
   0.979832592432621   0.979832592846353   0.313165924360203
   0.313165925765955   0.313165926179687   0.646499257693536
   0.646499259099288   0.313165926179687   0.646499257693536
   0.979832592432621   0.313165926179687   0.646499257693536
   0.313165925765955   0.646499259513020   0.646499257693536
   0.646499259099288   0.646499259513020   0.646499257693536
   0.979832592432621   0.646499259513020   0.646499257693536
   0.313165925765955   0.979832592846353   0.646499257693536
   0.646499259099288   0.979832592846353   0.646499257693536
   0.979832592432621   0.979832592846353   0.646499257693536
   0.313165925765955   0.313165926179687   0.979832591026869
   0.646499259099288   0.313165926179687   0.979832591026869
   0.979832592432621   0.313165926179687   0.979832591026869
   0.313165925765955   0.646499259513020   0.979832591026869
   0.646499259099288   0.646499259513020   0.979832591026869
   0.979832592432621   0.646499259513020   0.979832591026869
   0.313165925765955   0.979832592846353   0.979832591026869
   0.646499259099288   0.979832592846353   0.979832591026869
   0.979832592432621   0.979832592846353   0.979832591026869
   0.146499261357171   0.313165929027531   0.226825921854339
   0.479832594690504   0.313165929027531   0.226825921854339
   0.813165928023837   0.313165929027531   0.226825921854339
   0.146499261357171   0.646499262360864   0.226825921854339
   0.479832594690504   0.646499262360864   0.226825921854339
   0.813165928023837   0.646499262360864   0.226825921854339
   0.146499261357171   0.979832595694197   0.226825921854339
   0.479832594690504   0.979832595694197   0.226825921854339
   0.813165928023837   0.979832595694197   0.226825921854339
   0.146499261357171   0.313165929027531   0.560159255187672
   0.479832594690504   0.313165929027531   0.560159255187672
   0.813165928023837   0.313165929027531   0.560159255187672
   0.146499261357171   0.646499262360864   0.560159255187672
   0.479832594690504   0.646499262360864   0.560159255187672
   0.813165928023837   0.646499262360864   0.560159255187672
   0.146499261357171   0.979832595694197   0.560159255187672
   0.479832594690504   0.979832595694197   0.560159255187672
   0.813165928023837   0.979832595694197   0.560159255187672
   0.146499261357171   0.313165929027531   0.893492588521005
   0.479832594690504   0.313165929027531   0.893492588521005
   0.813165928023837   0.313165929027531   0.893492588521005
   0.146499261357171   0.646499262360864   0.893492588521005
   0.479832594690504   0.646499262360864   0.893492588521005
   0.813165928023837   0.646499262360864   0.893492588521005
   0.146499261357171   0.979832595694197   0.893492588521005
   0.479832594690504   0.979832595694197   0.893492588521005
   0.813165928023837   0.979832595694197   0.893492588521005
   0.226825921616880   0.060159251153380   0.146499257196800
   0.560159254950213   0.060159251153380   0.146499257196800
   0.893492588283547   0.060159251153380   0.146499257196800
   0.226825921616880   0.393492584486713   0.146499257196800
   0.560159254950213   0.393492584486713   0.146499257196800
   0.893492588283547   0.393492584486713   0.146499257196800
   0.226825921616880   0.726825917820047   0.146499257196800
   0.560159254950213   0.726825917820047   0.146499257196800
   0.893492588283547   0.726825917820047   0.146499257196800
   0.226825921616880   0.060159251153380   0.479832590530133
   0.560159254950213   0.060159251153380   0.479832590530133
   0.893492588283547   0.060159251153380   0.479832590530133
   0.226825921616880   0.393492584486713   0.479832590530133
   0.560159254950213   0.393492584486713   0.479832590530133
   0.893492588283547   0.393492584486713   0.479832590530133
   0.226825921616880   0.726825917820047   0.479832590530133
   0.560159254950213   0.726825917820047   0.479832590530133
   0.893492588283547   0.726825917820047   0.479832590530133
   0.226825921616880   0.060159251153380   0.813165923863467
   0.560159254950213   0.060159251153380   0.813165923863467
   0.893492588283547   0.060159251153380   0.813165923863467
   0.226825921616880   0.393492584486713   0.813165923863467
   0.560159254950213   0.393492584486713   0.813165923863467
   0.893492588283547   0.393492584486713   0.813165923863467
   0.226825921616880   0.726825917820047   0.813165923863467
   0.560159254950213   0.726825917820047   0.813165923863467
   0.893492588283547   0.726825917820047   0.813165923863467
   0.313165918961541   0.226825928989281   0.146499247229236
   0.646499252294875   0.226825928989281   0.146499247229236
   0.979832585628208   0.226825928989281   0.146499247229236
   0.313165918961541   0.560159262322615   0.146499247229236
   0.646499252294875   0.560159262322615   0.146499247229236
   0.979832585628208   0.560159262322615   0.146499247229236
   0.313165918961541   0.893492595655948   0.146499247229236
   0.646499252294875   0.893492595655948   0.146499247229236
   0.979832585628208   0.893492595655948   0.146499247229236
   0.313165918961541   0.226825928989281   0.479832580562569
   0.646499252294875   0.226825928989281   0.479832580562569
   0.979832585628208   0.226825928989281   0.479832580562569
   0.313165918961541   0.560159262322615   0.479832580562569
   0.646499252294875   0.560159262322615   0.479832580562569
   0.979832585628208   0.560159262322615   0.479832580562569
   0.313165918961541   0.893492595655948   0.479832580562569
   0.646499252294875   0.893492595655948   0.479832580562569
   0.979832585628208   0.893492595655948   0.479832580562569
   0.313165918961541   0.226825928989281   0.813165913895903
   0.646499252294875   0.226825928989281   0.813165913895903
   0.979832585628208   0.226825928989281   0.813165913895903
   0.313165918961541   0.560159262322615   0.813165913895903
   0.646499252294875   0.560159262322615   0.813165913895903
   0.979832585628208   0.560159262322615   0.813165913895903
   0.313165918961541   0.893492595655948   0.813165913895903
   0.646499252294875   0.893492595655948   0.813165913895903
   0.979832585628208   0.893492595655948   0.813165913895903
   0.060159266466716   0.146499250142492   0.226825930282753
   0.393492599800049   0.146499250142492   0.226825930282753
   0.726825933133383   0.146499250142492   0.226825930282753
   0.060159266466716   0.479832583475825   0.226825930282753
   0.393492599800049   0.479832583475825   0.226825930282753
   0.726825933133383   0.479832583475825   0.226825930282753
   0.060159266466716   0.813165916809159   0.226825930282753
   0.393492599800049   0.813165916809159   0.226825930282753
   0.726825933133383   0.813165916809159   0.226825930282753
   0.060159266466716   0.146499250142492   0.560159263616087
   0.393492599800049   0.146499250142492   0.560159263616087
   0.726825933133383   0.146499250142492   0.560159263616087
   0.060159266466716   0.479832583475825   0.560159263616087
   0.393492599800049   0.479832583475825   0.560159263616087
   0.726825933133383   0.479832583475825   0.560159263616087
   0.060159266466716   0.813165916809159   0.560159263616087
   0.393492599800049   0.813165916809159   0.560159263616087
   0.726825933133383   0.813165916809159   0.560159263616087
   0.060159266466716   0.146499250142492   0.893492596949420
   0.393492599800049   0.146499250142492   0.893492596949420
   0.726825933133383   0.146499250142492   0.893492596949420
   0.060159266466716   0.479832583475825   0.893492596949420
   0.393492599800049   0.479832583475825   0.893492596949420
   0.726825933133383   0.479832583475825   0.893492596949420
   0.060159266466716   0.813165916809159   0.893492596949420
   0.393492599800049   0.813165916809159   0.893492596949420
   0.726825933133383   0.813165916809159   0.893492596949420
   0.226825917359911   0.146499260114239   0.313165928238757
   0.560159250693244   0.146499260114239   0.313165928238757
   0.893492584026577   0.146499260114239   0.313165928238757
   0.226825917359911   0.479832593447572   0.313165928238757
   0.560159250693244   0.479832593447572   0.313165928238757
   0.893492584026577   0.479832593447572   0.313165928238757
   0.226825917359911   0.813165926780905   0.313165928238757
   0.560159250693244   0.813165926780905   0.313165928238757
   0.893492584026577   0.813165926780905   0.313165928238757
   0.226825917359911   0.146499260114239   0.646499261572091
   0.560159250693244   0.146499260114239   0.646499261572091
   0.893492584026577   0.146499260114239   0.646499261572091
   0.226825917359911   0.479832593447572   0.646499261572091
   0.560159250693244   0.479832593447572   0.646499261572091
   0.893492584026577   0.479832593447572   0.646499261572091
   0.226825917359911   0.813165926780905   0.646499261572091
   0.560159250693244   0.813165926780905   0.646499261572091
   0.893492584026577   0.813165926780905   0.646499261572091
   0.226825917359911   0.146499260114239   0.979832594905424
   0.560159250693244   0.146499260114239   0.979832594905424
   0.893492584026577   0.146499260114239   0.979832594905424
   0.226825917359911   0.479832593447572   0.979832594905424
   0.560159250693244   0.479832593447572   0.979832594905424
   0.893492584026577   0.479832593447572   0.979832594905424
   0.226825917359911   0.813165926780905   0.979832594905424
   0.560159250693244   0.813165926780905   0.979832594905424
   0.893492584026577   0.813165926780905   0.979832594905424
   0.146499267103765   0.226825917536240   0.060159251836969
   0.479832600437099   0.226825917536240   0.060159251836969
   0.813165933770432   0.226825917536240   0.060159251836969
   0.146499267103765   0.560159250869573   0.060159251836969
   0.479832600437099   0.560159250869573   0.060159251836969
   0.813165933770432   0.560159250869573   0.060159251836969
   0.146499267103765   0.893492584202907   0.060159251836969
   0.479832600437099   0.893492584202907   0.060159251836969
   0.813165933770432   0.893492584202907   0.060159251836969
   0.146499267103765   0.226825917536240   0.393492585170303
   0.479832600437099   0.226825917536240   0.393492585170303
   0.813165933770432   0.226825917536240   0.393492585170303
   0.146499267103765   0.560159250869573   0.393492585170303
   0.479832600437099   0.560159250869573   0.393492585170303
   0.813165933770432   0.560159250869573   0.393492585170303
   0.146499267103765   0.893492584202907   0.393492585170303
   0.479832600437099   0.893492584202907   0.393492585170303
   0.813165933770432   0.893492584202907   0.393492585170303
   0.146499267103765   0.226825917536240   0.726825918503636
   0.479832600437099   0.226825917536240   0.726825918503636
   0.813165933770432   0.226825917536240   0.726825918503636
   0.146499267103765   0.560159250869573   0.726825918503636
   0.479832600437099   0.560159250869573   0.726825918503636
   0.813165933770432   0.560159250869573   0.726825918503636
   0.146499267103765   0.893492584202907   0.726825918503636
   0.479832600437099   0.893492584202907   0.726825918503636
   0.813165933770432   0.893492584202907   0.726825918503636
