NPAR = 128
ISMEAR=0
SIGMA=0.01
ALGO=C
PREC   = Accurate
EDIFF  = 1E-8
ENCUT=1000

Ionic Relaxation
   ISIF   =   1
   IBRION = 1

#vdW
GGA = ML    #stands for rPW86
LUSE_VDW = .TRUE.
Zab_vdW = -1.8867
AGGAC = 0.0000
LASPH = .TRUE.



LWAVE=.FALSE.
LCHARG=.FALSE.
LWAVE=.FALSE.
LCHARG=.FALSE.
