C H O
        1.0000000000
  18.624324934513389   0.006025970279418   0.000000000035088
  -0.010302057575050  18.575888980485338   0.000000000066679
   0.000000000031231   0.000000000058019  16.261694120893019
  216  108  216
 Direct
   0.061694795076643   0.025743925854265   0.083333333281639
   0.395028128409977   0.025743925854265   0.083333333281639
   0.728361461743310   0.025743925854265   0.083333333281639
   0.061694795076643   0.359077259187599   0.083333333281639
   0.395028128409977   0.359077259187599   0.083333333281639
   0.728361461743310   0.359077259187599   0.083333333281639
   0.061694795076643   0.692410592520932   0.083333333281639
   0.395028128409977   0.692410592520932   0.083333333281639
   0.728361461743310   0.692410592520932   0.083333333281639
   0.061694795076643   0.025743925854265   0.416666666614972
   0.395028128409977   0.025743925854265   0.416666666614972
   0.728361461743310   0.025743925854265   0.416666666614972
   0.061694795076643   0.359077259187599   0.416666666614972
   0.395028128409977   0.359077259187599   0.416666666614972
   0.728361461743310   0.359077259187599   0.416666666614972
   0.061694795076643   0.692410592520932   0.416666666614972
   0.395028128409977   0.692410592520932   0.416666666614972
   0.728361461743310   0.692410592520932   0.416666666614972
   0.061694795076643   0.025743925854265   0.749999999948306
   0.395028128409977   0.025743925854265   0.749999999948306
   0.728361461743310   0.025743925854265   0.749999999948306
   0.061694795076643   0.359077259187599   0.749999999948306
   0.395028128409977   0.359077259187599   0.749999999948306
   0.728361461743310   0.359077259187599   0.749999999948306
   0.061694795076643   0.692410592520932   0.749999999948306
   0.395028128409977   0.692410592520932   0.749999999948306
   0.728361461743310   0.692410592520932   0.749999999948306
   0.271638538304813   0.307589407958142   0.250000000008185
   0.604971871638146   0.307589407958142   0.250000000008185
   0.938305204971479   0.307589407958142   0.250000000008185
   0.271638538304813   0.640922741291475   0.250000000008185
   0.604971871638146   0.640922741291475   0.250000000008185
   0.938305204971479   0.640922741291475   0.250000000008185
   0.271638538304813   0.974256074624809   0.250000000008185
   0.604971871638146   0.974256074624809   0.250000000008185
   0.938305204971479   0.974256074624809   0.250000000008185
   0.271638538304813   0.307589407958142   0.583333333341519
   0.604971871638146   0.307589407958142   0.583333333341519
   0.938305204971479   0.307589407958142   0.583333333341519
   0.271638538304813   0.640922741291475   0.583333333341519
   0.604971871638146   0.640922741291475   0.583333333341519
   0.938305204971479   0.640922741291475   0.583333333341519
   0.271638538304813   0.974256074624809   0.583333333341519
   0.604971871638146   0.974256074624809   0.583333333341519
   0.938305204971479   0.974256074624809   0.583333333341519
   0.271638538304813   0.307589407958142   0.916666666674852
   0.604971871638146   0.307589407958142   0.916666666674852
   0.938305204971479   0.307589407958142   0.916666666674852
   0.271638538304813   0.640922741291475   0.916666666674852
   0.604971871638146   0.640922741291475   0.916666666674852
   0.938305204971479   0.640922741291475   0.916666666674852
   0.271638538304813   0.974256074624809   0.916666666674852
   0.604971871638146   0.974256074624809   0.916666666674852
   0.938305204971479   0.974256074624809   0.916666666674852
   0.032902535983551   0.099580739977684   0.083333333366317
   0.366235869316884   0.099580739977684   0.083333333366317
   0.699569202650217   0.099580739977684   0.083333333366317
   0.032902535983551   0.432914073311017   0.083333333366317
   0.366235869316884   0.432914073311017   0.083333333366317
   0.699569202650217   0.432914073311017   0.083333333366317
   0.032902535983551   0.766247406644351   0.083333333366317
   0.366235869316884   0.766247406644351   0.083333333366317
   0.699569202650217   0.766247406644351   0.083333333366317
   0.032902535983551   0.099580739977684   0.416666666699650
   0.366235869316884   0.099580739977684   0.416666666699650
   0.699569202650217   0.099580739977684   0.416666666699650
   0.032902535983551   0.432914073311017   0.416666666699650
   0.366235869316884   0.432914073311017   0.416666666699650
   0.699569202650217   0.432914073311017   0.416666666699650
   0.032902535983551   0.766247406644351   0.416666666699650
   0.366235869316884   0.766247406644351   0.416666666699650
   0.699569202650217   0.766247406644351   0.416666666699650
   0.032902535983551   0.099580739977684   0.750000000032983
   0.366235869316884   0.099580739977684   0.750000000032983
   0.699569202650217   0.099580739977684   0.750000000032983
   0.032902535983551   0.432914073311017   0.750000000032983
   0.366235869316884   0.432914073311017   0.750000000032983
   0.699569202650217   0.432914073311017   0.750000000032983
   0.032902535983551   0.766247406644351   0.750000000032983
   0.366235869316884   0.766247406644351   0.750000000032983
   0.699569202650217   0.766247406644351   0.750000000032983
   0.300430797058754   0.233752593599865   0.249999999949578
   0.633764130392087   0.233752593599865   0.249999999949578
   0.967097463725420   0.233752593599865   0.249999999949578
   0.300430797058754   0.567085926933198   0.249999999949578
   0.633764130392087   0.567085926933198   0.249999999949578
   0.967097463725420   0.567085926933198   0.249999999949578
   0.300430797058754   0.900419260266532   0.249999999949578
   0.633764130392087   0.900419260266532   0.249999999949578
   0.967097463725420   0.900419260266532   0.249999999949578
   0.300430797058754   0.233752593599865   0.583333333282911
   0.633764130392087   0.233752593599865   0.583333333282911
   0.967097463725420   0.233752593599865   0.583333333282911
   0.300430797058754   0.567085926933198   0.583333333282911
   0.633764130392087   0.567085926933198   0.583333333282911
   0.967097463725420   0.567085926933198   0.583333333282911
   0.300430797058754   0.900419260266532   0.583333333282911
   0.633764130392087   0.900419260266532   0.583333333282911
   0.967097463725420   0.900419260266532   0.583333333282911
   0.300430797058754   0.233752593599865   0.916666666616244
   0.633764130392087   0.233752593599865   0.916666666616244
   0.967097463725420   0.233752593599865   0.916666666616244
   0.300430797058754   0.567085926933198   0.916666666616244
   0.633764130392087   0.567085926933198   0.916666666616244
   0.967097463725420   0.567085926933198   0.916666666616244
   0.300430797058754   0.900419260266532   0.916666666616244
   0.633764130392087   0.900419260266532   0.916666666616244
   0.967097463725420   0.900419260266532   0.916666666616244
   0.102758667406889   0.129581636679819   0.083333333302027
   0.436092000740222   0.129581636679819   0.083333333302027
   0.769425334073556   0.129581636679819   0.083333333302027
   0.102758667406889   0.462914970013152   0.083333333302027
   0.436092000740222   0.462914970013152   0.083333333302027
   0.769425334073556   0.462914970013152   0.083333333302027
   0.102758667406889   0.796248303346486   0.083333333302027
   0.436092000740222   0.796248303346486   0.083333333302027
   0.769425334073556   0.796248303346486   0.083333333302027
   0.102758667406889   0.129581636679819   0.416666666635360
   0.436092000740222   0.129581636679819   0.416666666635360
   0.769425334073556   0.129581636679819   0.416666666635360
   0.102758667406889   0.462914970013152   0.416666666635360
   0.436092000740222   0.462914970013152   0.416666666635360
   0.769425334073556   0.462914970013152   0.416666666635360
   0.102758667406889   0.796248303346486   0.416666666635360
   0.436092000740222   0.796248303346486   0.416666666635360
   0.769425334073556   0.796248303346486   0.416666666635360
   0.102758667406889   0.129581636679819   0.749999999968693
   0.436092000740222   0.129581636679819   0.749999999968693
   0.769425334073556   0.129581636679819   0.749999999968693
   0.102758667406889   0.462914970013152   0.749999999968693
   0.436092000740222   0.462914970013152   0.749999999968693
   0.769425334073556   0.462914970013152   0.749999999968693
   0.102758667406889   0.796248303346486   0.749999999968693
   0.436092000740222   0.796248303346486   0.749999999968693
   0.769425334073556   0.796248303346486   0.749999999968693
   0.230574665728120   0.203751697264245   0.250000000103746
   0.563907999061453   0.203751697264245   0.250000000103746
   0.897241332394787   0.203751697264245   0.250000000103746
   0.230574665728120   0.537085030597578   0.250000000103746
   0.563907999061453   0.537085030597578   0.250000000103746
   0.897241332394787   0.537085030597578   0.250000000103746
   0.230574665728120   0.870418363930911   0.250000000103746
   0.563907999061453   0.870418363930911   0.250000000103746
   0.897241332394787   0.870418363930911   0.250000000103746
   0.230574665728120   0.203751697264245   0.583333333437080
   0.563907999061453   0.203751697264245   0.583333333437080
   0.897241332394787   0.203751697264245   0.583333333437080
   0.230574665728120   0.537085030597578   0.583333333437080
   0.563907999061453   0.537085030597578   0.583333333437080
   0.897241332394787   0.537085030597578   0.583333333437080
   0.230574665728120   0.870418363930911   0.583333333437080
   0.563907999061453   0.870418363930911   0.583333333437080
   0.897241332394787   0.870418363930911   0.583333333437080
   0.230574665728120   0.203751697264245   0.916666666770413
   0.563907999061453   0.203751697264245   0.916666666770413
   0.897241332394787   0.203751697264245   0.916666666770413
   0.230574665728120   0.537085030597578   0.916666666770413
   0.563907999061453   0.537085030597578   0.916666666770413
   0.897241332394787   0.537085030597578   0.916666666770413
   0.230574665728120   0.870418363930911   0.916666666770413
   0.563907999061453   0.870418363930911   0.916666666770413
   0.897241332394787   0.870418363930911   0.916666666770413
   0.136374611348004   0.058204135929257   0.083333333383353
   0.469707944681338   0.058204135929257   0.083333333383353
   0.803041278014671   0.058204135929257   0.083333333383353
   0.136374611348004   0.391537469262590   0.083333333383353
   0.469707944681338   0.391537469262590   0.083333333383353
   0.803041278014671   0.391537469262590   0.083333333383353
   0.136374611348004   0.724870802595924   0.083333333383353
   0.469707944681338   0.724870802595924   0.083333333383353
   0.803041278014671   0.724870802595924   0.083333333383353
   0.136374611348004   0.058204135929257   0.416666666716687
   0.469707944681338   0.058204135929257   0.416666666716687
   0.803041278014671   0.058204135929257   0.416666666716687
   0.136374611348004   0.391537469262590   0.416666666716687
   0.469707944681338   0.391537469262590   0.416666666716687
   0.803041278014671   0.391537469262590   0.416666666716687
   0.136374611348004   0.724870802595924   0.416666666716687
   0.469707944681338   0.724870802595924   0.416666666716687
   0.803041278014671   0.724870802595924   0.416666666716687
   0.136374611348004   0.058204135929257   0.750000000050020
   0.469707944681338   0.058204135929257   0.750000000050020
   0.803041278014671   0.058204135929257   0.750000000050020
   0.136374611348004   0.391537469262590   0.750000000050020
   0.469707944681338   0.391537469262590   0.750000000050020
   0.803041278014671   0.391537469262590   0.750000000050020
   0.136374611348004   0.724870802595924   0.750000000050020
   0.469707944681338   0.724870802595924   0.750000000050020
   0.803041278014671   0.724870802595924   0.750000000050020
   0.196958721620188   0.275129197934534   0.249999999937472
   0.530292054953521   0.275129197934534   0.249999999937472
   0.863625388286855   0.275129197934534   0.249999999937472
   0.196958721620188   0.608462531267868   0.249999999937472
   0.530292054953521   0.608462531267868   0.249999999937472
   0.863625388286855   0.608462531267868   0.249999999937472
   0.196958721620188   0.941795864601201   0.249999999937472
   0.530292054953521   0.941795864601201   0.249999999937472
   0.863625388286855   0.941795864601201   0.249999999937472
   0.196958721620188   0.275129197934534   0.583333333270805
   0.530292054953521   0.275129197934534   0.583333333270805
   0.863625388286855   0.275129197934534   0.583333333270805
   0.196958721620188   0.608462531267868   0.583333333270805
   0.530292054953521   0.608462531267868   0.583333333270805
   0.863625388286855   0.608462531267868   0.583333333270805
   0.196958721620188   0.941795864601201   0.583333333270805
   0.530292054953521   0.941795864601201   0.583333333270805
   0.863625388286855   0.941795864601201   0.583333333270805
   0.196958721620188   0.275129197934534   0.916666666604139
   0.530292054953521   0.275129197934534   0.916666666604139
   0.863625388286855   0.275129197934534   0.916666666604139
   0.196958721620188   0.608462531267868   0.916666666604139
   0.530292054953521   0.608462531267868   0.916666666604139
   0.863625388286855   0.608462531267868   0.916666666604139
   0.196958721620188   0.941795864601201   0.916666666604139
   0.530292054953521   0.941795864601201   0.916666666604139
   0.863625388286855   0.941795864601201   0.916666666604139
   0.093184221044252   0.233844316809916   0.083333333333428
   0.426517554377585   0.233844316809916   0.083333333333428
   0.759850887710919   0.233844316809916   0.083333333333428
   0.093184221044252   0.567177650143249   0.083333333333428
   0.426517554377585   0.567177650143249   0.083333333333428
   0.759850887710919   0.567177650143249   0.083333333333428
   0.093184221044252   0.900510983476582   0.083333333333428
   0.426517554377585   0.900510983476582   0.083333333333428
   0.759850887710919   0.900510983476582   0.083333333333428
   0.093184221044252   0.233844316809916   0.416666666666761
   0.426517554377585   0.233844316809916   0.416666666666761
   0.759850887710919   0.233844316809916   0.416666666666761
   0.093184221044252   0.567177650143249   0.416666666666761
   0.426517554377585   0.567177650143249   0.416666666666761
   0.759850887710919   0.567177650143249   0.416666666666761
   0.093184221044252   0.900510983476582   0.416666666666761
   0.426517554377585   0.900510983476582   0.416666666666761
   0.759850887710919   0.900510983476582   0.416666666666761
   0.093184221044252   0.233844316809916   0.750000000000095
   0.426517554377585   0.233844316809916   0.750000000000095
   0.759850887710919   0.233844316809916   0.750000000000095
   0.093184221044252   0.567177650143249   0.750000000000095
   0.426517554377585   0.567177650143249   0.750000000000095
   0.759850887710919   0.567177650143249   0.750000000000095
   0.093184221044252   0.900510983476582   0.750000000000095
   0.426517554377585   0.900510983476582   0.750000000000095
   0.759850887710919   0.900510983476582   0.750000000000095
   0.240149113790960   0.099489017371465   0.250000000001120
   0.573482447124294   0.099489017371465   0.250000000001120
   0.906815780457627   0.099489017371465   0.250000000001120
   0.240149113790960   0.432822350704798   0.250000000001120
   0.573482447124294   0.432822350704798   0.250000000001120
   0.906815780457627   0.432822350704798   0.250000000001120
   0.240149113790960   0.766155684038131   0.250000000001120
   0.573482447124294   0.766155684038131   0.250000000001120
   0.906815780457627   0.766155684038131   0.250000000001120
   0.240149113790960   0.099489017371465   0.583333333334454
   0.573482447124294   0.099489017371465   0.583333333334454
   0.906815780457627   0.099489017371465   0.583333333334454
   0.240149113790960   0.432822350704798   0.583333333334454
   0.573482447124294   0.432822350704798   0.583333333334454
   0.906815780457627   0.432822350704798   0.583333333334454
   0.240149113790960   0.766155684038131   0.583333333334454
   0.573482447124294   0.766155684038131   0.583333333334454
   0.906815780457627   0.766155684038131   0.583333333334454
   0.240149113790960   0.099489017371465   0.916666666667787
   0.573482447124294   0.099489017371465   0.916666666667787
   0.906815780457627   0.099489017371465   0.916666666667787
   0.240149113790960   0.432822350704798   0.916666666667787
   0.573482447124294   0.432822350704798   0.916666666667787
   0.906815780457627   0.432822350704798   0.916666666667787
   0.240149113790960   0.766155684038131   0.916666666667787
   0.573482447124294   0.766155684038131   0.916666666667787
   0.906815780457627   0.766155684038131   0.916666666667787
   0.262719825267280   0.091231238694782   0.083333333333584
   0.596053158600613   0.091231238694782   0.083333333333584
   0.929386491933947   0.091231238694782   0.083333333333584
   0.262719825267280   0.424564572028115   0.083333333333584
   0.596053158600613   0.424564572028115   0.083333333333584
   0.929386491933947   0.424564572028115   0.083333333333584
   0.262719825267280   0.757897905361448   0.083333333333584
   0.596053158600613   0.757897905361448   0.083333333333584
   0.929386491933947   0.757897905361448   0.083333333333584
   0.262719825267280   0.091231238694782   0.416666666666918
   0.596053158600613   0.091231238694782   0.416666666666918
   0.929386491933947   0.091231238694782   0.416666666666918
   0.262719825267280   0.424564572028115   0.416666666666918
   0.596053158600613   0.424564572028115   0.416666666666918
   0.929386491933947   0.424564572028115   0.416666666666918
   0.262719825267280   0.757897905361448   0.416666666666918
   0.596053158600613   0.757897905361448   0.416666666666918
   0.929386491933947   0.757897905361448   0.416666666666918
   0.262719825267280   0.091231238694782   0.750000000000251
   0.596053158600613   0.091231238694782   0.750000000000251
   0.929386491933947   0.091231238694782   0.750000000000251
   0.262719825267280   0.424564572028115   0.750000000000251
   0.596053158600613   0.424564572028115   0.750000000000251
   0.929386491933947   0.424564572028115   0.750000000000251
   0.262719825267280   0.757897905361448   0.750000000000251
   0.596053158600613   0.757897905361448   0.750000000000251
   0.929386491933947   0.757897905361448   0.750000000000251
   0.070613507887011   0.242102092622036   0.250000000000564
   0.403946841220344   0.242102092622036   0.250000000000564
   0.737280174553677   0.242102092622036   0.250000000000564
   0.070613507887011   0.575435425955370   0.250000000000564
   0.403946841220344   0.575435425955370   0.250000000000564
   0.737280174553677   0.575435425955370   0.250000000000564
   0.070613507887011   0.908768759288703   0.250000000000564
   0.403946841220344   0.908768759288703   0.250000000000564
   0.737280174553677   0.908768759288703   0.250000000000564
   0.070613507887011   0.242102092622036   0.583333333333897
   0.403946841220344   0.242102092622036   0.583333333333897
   0.737280174553677   0.242102092622036   0.583333333333897
   0.070613507887011   0.575435425955370   0.583333333333897
   0.403946841220344   0.575435425955370   0.583333333333897
   0.737280174553677   0.575435425955370   0.583333333333897
   0.070613507887011   0.908768759288703   0.583333333333897
   0.403946841220344   0.908768759288703   0.583333333333897
   0.737280174553677   0.908768759288703   0.583333333333897
   0.070613507887011   0.242102092622036   0.916666666667230
   0.403946841220344   0.242102092622036   0.916666666667230
   0.737280174553677   0.242102092622036   0.916666666667230
   0.070613507887011   0.575435425955370   0.916666666667230
   0.403946841220344   0.575435425955370   0.916666666667230
   0.737280174553677   0.575435425955370   0.916666666667230
   0.070613507887011   0.908768759288703   0.916666666667230
   0.403946841220344   0.908768759288703   0.916666666667230
   0.737280174553677   0.908768759288703   0.916666666667230
   0.035630276120962   0.297740441582229   0.083333333347933
   0.368963609454295   0.297740441582229   0.083333333347933
   0.702296942787629   0.297740441582229   0.083333333347933
   0.035630276120962   0.631073774915562   0.083333333347933
   0.368963609454295   0.631073774915562   0.083333333347933
   0.702296942787629   0.631073774915562   0.083333333347933
   0.035630276120962   0.964407108248896   0.083333333347933
   0.368963609454295   0.964407108248896   0.083333333347933
   0.702296942787629   0.964407108248896   0.083333333347933
   0.035630276120962   0.297740441582229   0.416666666681266
   0.368963609454295   0.297740441582229   0.416666666681266
   0.702296942787629   0.297740441582229   0.416666666681266
   0.035630276120962   0.631073774915562   0.416666666681266
   0.368963609454295   0.631073774915562   0.416666666681266
   0.702296942787629   0.631073774915562   0.416666666681266
   0.035630276120962   0.964407108248896   0.416666666681266
   0.368963609454295   0.964407108248896   0.416666666681266
   0.702296942787629   0.964407108248896   0.416666666681266
   0.035630276120962   0.297740441582229   0.750000000014599
   0.368963609454295   0.297740441582229   0.750000000014599
   0.702296942787629   0.297740441582229   0.750000000014599
   0.035630276120962   0.631073774915562   0.750000000014599
   0.368963609454295   0.631073774915562   0.750000000014599
   0.702296942787629   0.631073774915562   0.750000000014599
   0.035630276120962   0.964407108248896   0.750000000014599
   0.368963609454295   0.964407108248896   0.750000000014599
   0.702296942787629   0.964407108248896   0.750000000014599
   0.297703057527847   0.035592892139700   0.250000000008072
   0.631036390861181   0.035592892139700   0.250000000008072
   0.964369724194514   0.035592892139700   0.250000000008072
   0.297703057527847   0.368926225473033   0.250000000008072
   0.631036390861181   0.368926225473033   0.250000000008072
   0.964369724194514   0.368926225473033   0.250000000008072
   0.297703057527847   0.702259558806367   0.250000000008072
   0.631036390861181   0.702259558806367   0.250000000008072
   0.964369724194514   0.702259558806367   0.250000000008072
   0.297703057527847   0.035592892139700   0.583333333341405
   0.631036390861181   0.035592892139700   0.583333333341405
   0.964369724194514   0.035592892139700   0.583333333341405
   0.297703057527847   0.368926225473033   0.583333333341405
   0.631036390861181   0.368926225473033   0.583333333341405
   0.964369724194514   0.368926225473033   0.583333333341405
   0.297703057527847   0.702259558806367   0.583333333341405
   0.631036390861181   0.702259558806367   0.583333333341405
   0.964369724194514   0.702259558806367   0.583333333341405
   0.297703057527847   0.035592892139700   0.916666666674738
   0.631036390861181   0.035592892139700   0.916666666674738
   0.964369724194514   0.035592892139700   0.916666666674738
   0.297703057527847   0.368926225473033   0.916666666674738
   0.631036390861181   0.368926225473033   0.916666666674738
   0.964369724194514   0.368926225473033   0.916666666674738
   0.297703057527847   0.702259558806367   0.916666666674738
   0.631036390861181   0.702259558806367   0.916666666674738
   0.964369724194514   0.702259558806367   0.916666666674738
   0.302521295042024   0.129222179850900   0.083333333328028
   0.635854628375358   0.129222179850900   0.083333333328028
   0.969187961708691   0.129222179850900   0.083333333328028
   0.302521295042024   0.462555513184233   0.083333333328028
   0.635854628375358   0.462555513184233   0.083333333328028
   0.969187961708691   0.462555513184233   0.083333333328028
   0.302521295042024   0.795888846517567   0.083333333328028
   0.635854628375358   0.795888846517567   0.083333333328028
   0.969187961708691   0.795888846517567   0.083333333328028
   0.302521295042024   0.129222179850900   0.416666666661361
   0.635854628375358   0.129222179850900   0.416666666661361
   0.969187961708691   0.129222179850900   0.416666666661361
   0.302521295042024   0.462555513184233   0.416666666661361
   0.635854628375358   0.462555513184233   0.416666666661361
   0.969187961708691   0.462555513184233   0.416666666661361
   0.302521295042024   0.795888846517567   0.416666666661361
   0.635854628375358   0.795888846517567   0.416666666661361
   0.969187961708691   0.795888846517567   0.416666666661361
   0.302521295042024   0.129222179850900   0.749999999994695
   0.635854628375358   0.129222179850900   0.749999999994695
   0.969187961708691   0.129222179850900   0.749999999994695
   0.302521295042024   0.462555513184233   0.749999999994695
   0.635854628375358   0.462555513184233   0.749999999994695
   0.969187961708691   0.462555513184233   0.749999999994695
   0.302521295042024   0.795888846517567   0.749999999994695
   0.635854628375358   0.795888846517567   0.749999999994695
   0.969187961708691   0.795888846517567   0.749999999994695
   0.030812037459832   0.204111152335902   0.250000000007804
   0.364145370793165   0.204111152335902   0.250000000007804
   0.697478704126498   0.204111152335902   0.250000000007804
   0.030812037459832   0.537444485669235   0.250000000007804
   0.364145370793165   0.537444485669235   0.250000000007804
   0.697478704126498   0.537444485669235   0.250000000007804
   0.030812037459832   0.870777819002568   0.250000000007804
   0.364145370793165   0.870777819002568   0.250000000007804
   0.697478704126498   0.870777819002568   0.250000000007804
   0.030812037459832   0.204111152335902   0.583333333341137
   0.364145370793165   0.204111152335902   0.583333333341137
   0.697478704126498   0.204111152335902   0.583333333341137
   0.030812037459832   0.537444485669235   0.583333333341137
   0.364145370793165   0.537444485669235   0.583333333341137
   0.697478704126498   0.537444485669235   0.583333333341137
   0.030812037459832   0.870777819002568   0.583333333341137
   0.364145370793165   0.870777819002568   0.583333333341137
   0.697478704126498   0.870777819002568   0.583333333341137
   0.030812037459832   0.204111152335902   0.916666666674471
   0.364145370793165   0.204111152335902   0.916666666674471
   0.697478704126498   0.204111152335902   0.916666666674471
   0.030812037459832   0.537444485669235   0.916666666674471
   0.364145370793165   0.537444485669235   0.916666666674471
   0.697478704126498   0.537444485669235   0.916666666674471
   0.030812037459832   0.870777819002568   0.916666666674471
   0.364145370793165   0.870777819002568   0.916666666674471
   0.697478704126498   0.870777819002568   0.916666666674471
   0.131150440579106   0.194032117266251   0.083333333338684
   0.464483773912439   0.194032117266251   0.083333333338684
   0.797817107245772   0.194032117266251   0.083333333338684
   0.131150440579106   0.527365450599584   0.083333333338684
   0.464483773912439   0.527365450599584   0.083333333338684
   0.797817107245772   0.527365450599584   0.083333333338684
   0.131150440579106   0.860698783932917   0.083333333338684
   0.464483773912439   0.860698783932917   0.083333333338684
   0.797817107245772   0.860698783932917   0.083333333338684
   0.131150440579106   0.194032117266251   0.416666666672017
   0.464483773912439   0.194032117266251   0.416666666672017
   0.797817107245772   0.194032117266251   0.416666666672017
   0.131150440579106   0.527365450599584   0.416666666672017
   0.464483773912439   0.527365450599584   0.416666666672017
   0.797817107245772   0.527365450599584   0.416666666672017
   0.131150440579106   0.860698783932917   0.416666666672017
   0.464483773912439   0.860698783932917   0.416666666672017
   0.797817107245772   0.860698783932917   0.416666666672017
   0.131150440579106   0.194032117266251   0.750000000005350
   0.464483773912439   0.194032117266251   0.750000000005350
   0.797817107245772   0.194032117266251   0.750000000005350
   0.131150440579106   0.527365450599584   0.750000000005350
   0.464483773912439   0.527365450599584   0.750000000005350
   0.797817107245772   0.527365450599584   0.750000000005350
   0.131150440579106   0.860698783932917   0.750000000005350
   0.464483773912439   0.860698783932917   0.750000000005350
   0.797817107245772   0.860698783932917   0.750000000005350
   0.202182893407183   0.139301216360094   0.249999999964317
   0.535516226740516   0.139301216360094   0.249999999964317
   0.868849560073850   0.139301216360094   0.249999999964317
   0.202182893407183   0.472634549693427   0.249999999964317
   0.535516226740516   0.472634549693427   0.249999999964317
   0.868849560073850   0.472634549693427   0.249999999964317
   0.202182893407183   0.805967883026761   0.249999999964317
   0.535516226740516   0.805967883026761   0.249999999964317
   0.868849560073850   0.805967883026761   0.249999999964317
   0.202182893407183   0.139301216360094   0.583333333297650
   0.535516226740516   0.139301216360094   0.583333333297650
   0.868849560073850   0.139301216360094   0.583333333297650
   0.202182893407183   0.472634549693427   0.583333333297650
   0.535516226740516   0.472634549693427   0.583333333297650
   0.868849560073850   0.472634549693427   0.583333333297650
   0.202182893407183   0.805967883026761   0.583333333297650
   0.535516226740516   0.805967883026761   0.583333333297650
   0.868849560073850   0.805967883026761   0.583333333297650
   0.202182893407183   0.139301216360094   0.916666666630983
   0.535516226740516   0.139301216360094   0.916666666630983
   0.868849560073850   0.139301216360094   0.916666666630983
   0.202182893407183   0.472634549693427   0.916666666630983
   0.535516226740516   0.472634549693427   0.916666666630983
   0.868849560073850   0.472634549693427   0.916666666630983
   0.202182893407183   0.805967883026761   0.916666666630983
   0.535516226740516   0.805967883026761   0.916666666630983
   0.868849560073850   0.805967883026761   0.916666666630983
   0.198445253693224   0.034220437803046   0.083333333318125