 C  H  N  O 
 1.0000000000000000
    24.1513679407616948   -0.0000407980384920   -0.3257379636568730
    -0.0000425846673220   25.0653176129303219   -0.0002109605877260
    -3.8825347870943210   -0.0000473157090030    6.3034251802859131
 C   H   N   O  
 128 128  64  64
Cartesian
 -0.1319812257488476  2.6320602987805306  3.1379694634044686
 11.9437027307910171  2.6320399095858034  2.9751004793785900
 -0.1320025226643650 15.1647191030556208  3.1378639828138422
 11.9436814448453852 15.1646987064036196  2.9749950005300150
 -2.0732486246200481  2.6320366474061943  6.2896820529152775
 10.0024353298917976  2.6320162614498166  6.1268130686230471
 -2.0732699121504439 15.1646954394639319  6.2895765734563529
 10.0024140517030204 15.1646750481972390  6.1267075907270172
 10.2663657660711003  9.9005578021273575 -0.1492306284836875
 22.3420497454755385  9.9005373959861380 -0.3120996092630751
 10.2663444786116891 22.4332166104579400 -0.1493361084960075
 22.3420284697475680 22.4331961876410020 -0.3122050876196568
  8.3250983813555202  9.9005341326143483  3.0024819626994752
 20.4007823509269137  9.9005137392922240  2.8396129807681274
  8.3250770886649068 22.4331929472333726  3.0023764820900478
 20.4007610731396696 22.4331725350852942  2.8395075021245013
  4.2285271374563411  8.8984135058047489 -0.0677992913984172
 16.3042111115373238  8.8983931087054167 -0.2306682727689178
  4.2285058402904099 21.4310723087707871 -0.0679047715455185
 16.3041898217621153 21.4310519193889988 -0.2307737527896022
  2.2872597417755824  8.8983898456713639  3.0839132985151467
 14.3629437171952823  8.8983694497072374  2.9210443172636325
  2.2872384487200170 21.4310486537946581  3.0838078188469060
 14.3629224296456588 21.4310282632028546  2.9209388375121388
  5.9058574296240050  3.6342044131257882  3.0565371615362440
 17.9815413847413730  3.6341839926529493  2.8936681782086393
  5.9058361273378122 16.1668632002558823  3.0564316801519769
 17.9815200909786199 16.1668427939754977  2.8935626975504647
  3.9645900284010533  3.6341807449205232  6.2082497507659911
 16.0402739963848759  3.6341603411517656  6.0453807689601264
  3.9645687348745100 16.1668395441342945  6.2081442705044569
 16.0402526947896966 16.1668191327364532  6.0452752873404938
  2.1224381803824892  0.1637849522584069  0.0753157967144052
 14.1981221474187649  0.1637645565143066 -0.0875531845351824
  2.1224168888332171 12.6964437661075831  0.0752103166793968
 14.1981008571872156 12.6964233706446645 -0.0876586645000583
  0.1811707882019211  0.1637612959509307  3.2270283869478709
 12.2568547568086839  0.1637409018260812  3.0641594058045127
  0.1811494935014236 12.6964201063714235  3.2269229066934413
 12.2568334634099489 12.6963997126243147  3.0640539256264376
  8.0119463446755290 12.3688329004566793  2.9134219641685033
 20.0876303154660150 12.3688124945884663  2.7505529823698600
  8.0119250529858999 24.9014917052569267  2.9133164835837571
 20.0876090270539613 24.9014713038012907  2.7504475019525652
  6.0706789487010004 12.3688092398711138  6.0651345541492097
 18.1463629224568841 12.3687888373588883  5.9022655725587594
  6.0706576573781472 24.9014680452373618  6.0650290735702521
 18.1463416348055020 24.9014476472054689  5.9021600921854462
  1.9741117027016644  6.4300886878664594  2.9948983045502975
 14.0497956702041833  6.4300682931473716  2.8320293230295439
  1.9740904058632835 18.9627474971476175  2.9947928235623711
 14.0497743799816508 18.9627270952017106  2.8319238434936378
  0.0328443097739122  6.4300650295029538  6.1466108947536968
 12.1085282764039732  6.4300446354132861  5.9837419131468215
  0.0328230124283505 18.9627238391064985  6.1465054137306447
 12.1085069854493188 18.9627034383488144  5.9836364335498713
  8.1602730314884226  6.1025290693482450 -0.0061605794487250
 20.2359570000600684  6.1025086772348738 -0.1690295625389576
  8.1602517376368464 18.6351878807866811 -0.0062660602949451
 20.2359357058214151 18.6351674866116852 -0.1691350425924613
  6.2190056401254443  6.1025054091707149  3.1455520108452308
 18.2946896051627661  6.1024850208084489  2.9826830275204044
  6.2189843430224689 18.6351642241565791  3.1454465297844085
 18.2946683139503392 18.6351438268898200  2.9825775476604863
  3.5370977638021075  0.3796528264537790  0.2224350566979257
 15.6127817353767995  0.3796324260357364  0.0595660756845871
  3.5370764756218445 12.9123116342023039  0.2223295772642913
 15.6127604518393088 12.9122912274322381  0.0594605966279667
  1.5958303703603816  0.3796291680878678  3.3741476468808655
 13.6715143420270184  0.3796087692744489  3.2112786658490409
  1.5958090817414803 12.9122879746212504  3.3740421673787102
 13.6714930584168179 12.9122675700054597  3.2111731867610289
  6.5972868110855458 12.1529650994332616  2.7663027519890848
 18.6729707788560155 12.1529447019705295  2.6034337694736363
  6.5972655256520021 24.6856238983231719  2.7661972722395545
 18.6729494878154796 24.6856034995828217  2.6033282886578828
  4.6560194171507217 12.1529414406127465  5.9180153421087329
 16.7317033851717198 12.1529210438928139  5.7551463595993688
  4.6559981324281230 24.6856002389939810  5.9179098624302542
 16.7316820949005418 24.6855798443295491  5.7550408788324052
  0.5594518358822577  6.6459528191362045  2.8477701868798255
 12.6351358083834509  6.6459324239836493  2.6849012060229080
  0.5594305574168468 19.1786116274135665  2.8476647090936633
 12.6351145255615531 19.1785912334264239  2.6847957272296687
 -1.3818155577892981  6.6459291615390859  5.9994827770045376
 10.6938684147945295  6.6459087664282759  5.8366137961684101
 -1.3818368365273417 19.1785879701323303  5.9993772992102548
 10.6938471321181794 19.1785675759923038  5.8365083173957251
  9.5749328764928450  5.8866649189801823  0.1409676118733285
 21.6506168370186813  5.8866445176593158 -0.0219013702103873
  9.5749115769537223 18.4193237280849154  0.1408621313595184
 21.6505955446674072 18.4193033268663697 -0.0220068508940905
  7.6336654834748732  5.8866412592581918  3.2926802020547585
 19.7093494434415852  5.8866208595575467  3.1298112199062569
  7.6336441834954627 18.4193000710153392  3.2925747214665386
 19.7093281509412748 18.4192796687994189  3.1297057392601437
  4.0184372529363372  1.6543982329352720  0.2325323183515730
 16.0941212236701112  1.6543778346622608  0.0696633372949208
  4.0184159566426905 14.1870570334846651  0.2324268382556096
 16.0940999289911275 14.1870366381119997  0.0695578570593895
  2.0771698589186638  1.6543745747886076  3.3842449084266568
 14.1528538283557115  1.6543541742067336  3.2213759273475011
  2.0771485648532195 14.1870333780860545  3.3841394284920345
 14.1528325351677005 14.1870129800358349  3.2212704471880604
  6.1159473276368956 10.8782197056046837  2.7562061645069185
 18.1916313018214311 10.8781993061053495  2.5933371828003859
  6.1159260408182021 23.4108785138447608  2.7561006846580205
 18.1916100166989239 23.4108581175804105  2.5932317026361251
  4.1746799360501328 10.8781960501443553  5.9079187547551850
 16.2503639083309963 10.8781756483037242  5.7450497729462846
  4.1746586486753978 23.4108548580645106  5.9078132748725132
 16.2503426208948731 23.4108344562605097  5.7449442926879115
  0.0781107095601676  7.9206976730874672  2.8376474251005694
 12.1537946831698100  7.9206772707891657  2.6747784434895769
  0.0780894186618294 20.4533564863517867  2.8375419445891827
 12.1537733908495795 20.4533360824540189  2.6746729634949609
 -1.8631566840645986  7.9206740151695341  5.9893600152259712
 10.2125272896435035  7.9206536127181959  5.8264910336416715
 -1.8631779741537779 20.4533328276948261  5.9892545347768760
 10.2125059977287744 20.4533124240665991  5.8263855536682598
 10.0562738690283702  4.6119200372731637  0.1510905086232382
 22.1319578410882194  4.6118996334414648 -0.0117784734702985
 10.0562525776066316 17.1445788355092503  0.1509850281710986
 22.1319365510098827 17.1445584366410806 -0.0118839532250152
  8.1150064730535583  4.6118963822866483  3.3028030986093242
 20.1906904481244531  4.6118759750455380  3.1399341167186652
  8.1149851846883081 17.1445551764906874  3.3026976183588412
 20.1906691570173358 17.1445347797560892  3.1398286368892974
  5.0699110970158898  1.8917325249825141  0.3180952769091310
 17.1455950671772683  1.8917121259953196  0.1552262937404306
  5.0698898064947606 14.4243913320199582  0.3179897963131081
 17.1455737767886660 14.4243709322429012  0.1551208135955523
  3.1286437035114032  1.8917088671173652  3.4698078670679560
 15.2043276744054641  1.8916884684662458  3.3069388838982787
  3.1286224122208401 14.4243676738689057  3.4697023863972727
 15.2043063833467791 14.4243472744128916  3.3068334037940050
  5.0644734858474152 10.6408853538300221  2.6706439977795418
 17.1401574548201054 10.6408649544961573  2.5077750165074599
  5.0644521920638574 23.1735441588871218  2.6705385187107593
 17.1401361598574269 23.1735237596177264  2.5076695374399938
  3.1232060915071052 10.6408616956561204  5.8223565878553742
 15.1988900612258284 10.6408412966351449  5.6594876066677440
  3.1231847979820864 23.1735205007730052  5.8222511087806392
 15.1988687673031428 23.1735001021912588  5.6593821276524920
 -0.9733630899178534  8.1580302854070350  2.7520761647678444
 11.1023208803158457  8.1580098869803717  2.5892071807239598
 -0.9733843807534285 20.6906890924897979  2.7519706814682787
 11.1022995880377238 20.6906686939567876  2.5891016988958144
 -2.9146304834606207  8.1580066275486267  5.9037887549063193
  9.1610534868669991  8.1579862290705876  5.7409197708143473
 -2.9146517746407015 20.6906654347655738  5.9036832716115804
  9.1610321943516801 20.6906450361506842  5.7408142890053009
 11.1077476524321348  4.3745873143077389  0.2366615384413021
 23.1834316207503015  4.3745669150899875  0.0737925564028088
 11.1077263585597201 16.9072461209289209  0.2365560581429481
 23.1834103276097352 16.9072257222473503  0.0736870772457801
  9.1664802597594690  4.3745636561225192  3.3883741287016407
 21.2421642269457713  4.3745432573371970  3.2255051465787208
  9.1664589647674806 16.9072224632123884  3.3882686483341145
 21.2421429342917811 16.9072020642716723  3.2253996673314549
  3.5845756638587947  3.6939526224189430  0.0807831374408009
 15.6602596328179313  3.6939322226163913 -0.0820858420971383
  3.5845543710810035 16.2266114268212185  0.0806776571491640
 15.6602383427075544 16.2265910307198560 -0.0821913229766019
  1.6433082702226325  3.6939289638785833  3.2324957275924868
 13.7189922390623487  3.6939085635786895  3.0696267480467738
  1.6432869777232035 16.2265877697127152  3.2323902472633024
 13.7189709492039853 16.2265673730009645  3.0695212671969312
  6.5498090285721204  8.8386652041786018  2.9079546625060599
 18.6254929990929625  8.8386448053541393  2.7450856798812495
  6.5497877399626798 21.3713240174653230  2.9078491819011254
 18.6254717098308582 21.3713036151393148  2.7449801989131508
  4.6085416352037756  8.8386415475748699  6.0596672526114048
 16.6842256055663576  8.8386211474284035  5.8967982700456414
  4.6085203468614813 21.3713003608603032  6.0595617719840806
 16.6842043158524049 21.3712799561091451  5.8966927890906389
  0.5119693674503087  9.9602549854126377  2.9893595086997342
 12.5876533397792159  9.9602345830275709  2.8264905287598014
  0.5119480796063481 22.4929137842077900  2.9892540290480594
 12.5876320496959977 22.4928933853432618  2.8263850501594443
 -1.4292980260372776  9.9602313276271808  6.1410720988380936
 10.6463859462812831  9.9602109252154669  5.9782031188792519
 -1.4293193139615241 22.4928901262015408  6.1409666192087418
 10.6463646561028717 22.4928697274953002  5.9780976403006694
  9.6224150149249397  2.5723626770312538 -0.0006205787935428
 21.6980989823210315  2.5723422828981435 -0.1634895623145501
  9.6223937206218846 15.1050214860486740 -0.0007260603496025
 21.6980776906542872 15.1050010877714946 -0.1635950431195681
  7.6811476211305232  2.5723390203147232  3.1510920113985947
 19.7568315887859391  2.5723186244781227  2.9882230278427024
  7.6811263273111239 15.1049978276173196  3.1509865298284860
 19.7568102969755195 15.1049774305061177  2.9881175469937427
 -1.6199629547102665  1.2068541457274036  3.0437959995221826
 10.4557210111237762  1.2068337464911520  2.8809270178639199
 -1.6199842503500874 13.7395129517777725  3.0436905193398673
 10.4556997181069313 13.7394925520632842  2.8808215372560975
 -3.5612303491393522  1.2068304879600991  6.1955085896493154
  8.5144536164900817  1.2068100887619895  6.0326396079619613
 -3.5612516432403649 13.7394892938522108  6.1954031094910471
  8.5144323247437992 13.7394688942202290  6.0325341273877111
 11.7543476411047774 11.3257639143593885 -0.0550584923400257
 23.8300316159578536 11.3257435155031168 -0.2179274745809461
 11.7543263511117679 23.8584227201702603 -0.0551639718206464
 23.8300103271443078 23.8584023214080325 -0.2180329548731093
  9.8130802487419526 11.3257402563197189  3.0966540978784409
 21.8887642222840917 11.3257198576605091  2.9337851155437265
  9.8130589581037455 23.8583990623024924  3.0965486183983058
 21.8887429330576779 23.8583786636248227  2.9336796352320667
  5.7165098390445541  7.4732079310609105  0.0264096814094387
 17.7921938096545418  7.4731875327895834 -0.1364593015208484
  5.7164885427490919 20.0058667393012328  0.0263042008693366
 17.7921725160408215 20.0058463408419698 -0.1365647820544121
  3.7752424450522004  7.4731842731877185  3.1781222715403645
 15.8509264161760210  7.4731638748783213  3.0152532886596650
  3.7752211493078383 20.0058430815395880  3.1780167909660615
 15.8509051226952558 20.0058226830026129  3.0151478081270380
  4.4178747485143459  5.0594100381393998  2.9623284180663871
 16.4935587180825109  5.0593896377403604  2.7994594377586348
  4.4178534578061690 17.5920688434168717  2.9622229382303891
 16.4935374272153759 17.5920484435662843  2.7993539580174711
  2.4766073539385745  5.0593863801216026  6.1140410081393215
 14.5522913252696178  5.0593659799896518  5.9511720279171261
  2.4765860645378681 17.5920451855301607  6.1139355282748271
 14.5522700331416104 17.5920247857092882  5.9510665482050271
  4.1900366738272723 12.0542896294662203  0.2937040488433715
 16.2657206410074053 12.0542692344825504  0.1308350658874742
  4.1900153824194959 24.5869484346667697  0.2935985690424135
 16.2656993528162133 24.5869280359262099  0.1307295857745786
  2.2487692800768344 12.0542659719512510  3.4454166389375493
 14.3244532475272273 12.0542455765229519  3.2825476560075444
  2.2487479887685713 24.5869247769619967  3.4453111592032908
 14.3244319593572289 24.5869043779361220  3.2824421759391518
  5.9443479320722377  0.4783282274094818  2.6950328145198554
 18.0200319055143900  0.4783078258243511  2.5321638334126182
  5.9443266446006993 13.0109870286060083  2.6949273354318604
 18.0200106153065107 13.0109666287227395  2.5320583537159211
  4.0030805381099626  0.4783045701490100  5.8467454046913936
 16.0787645122379459  0.4782841674367211  5.6838764235481722
  4.0030592509982732 13.0109633708405195  5.8466399256114183
 16.0787432217663806 13.0109429709299356  5.6837709438496038
 -0.0935067520510128  5.7879287257828320  2.7764087187356696
 11.9821772167738114  5.7879083247156089  2.6135397365507114
 -0.0935280502450726 18.3205875258201196  2.7763032400852588
 11.9821559205136197 18.3205671263620289  2.6134342561949260
 -2.0347741456156703  5.7879050678186665  5.9281213088999225
 10.0409098231791969  5.7878846667101875  5.7652523267427274
 -2.0347954437530467 18.3205638679915097  5.9280158301906996
 10.0408885268649772 18.3205434683899533  5.7651468463498716
 10.2278914812692907  6.7446889742403258  0.2123295863978449
 22.3035754556034966  6.7446685799458193  0.0494606069739435
 10.2278701914156880 19.2773477834341769  0.2122241071880575
 22.3035541625410296 19.2773273859818275  0.0493551253700471
  8.2866240879441087  6.7446653168347526  3.3640421765121693
 20.3623080621209738  6.7446449221964517  3.2011731971096036
  8.2866027977419332 19.2773241254265031  3.3639366971650722
 20.3622867690395957 19.2773037281200992  3.2010677156074681
  3.1882175225254428  2.7430213624656203  0.1132102179695422
 15.2639014960034789  2.7430009632716024 -0.0496587610881729
  3.1881962300827178 15.2756801752580422  0.1131047381816889
 15.2638801956316179 15.2756597714978621 -0.0497642421942556
  1.2469501286270450  2.7429977063821993  3.2649228079751196
 13.3226341021247539  2.7429773088867853  3.1020538288932529
  1.2469288364091013 15.2756565151420265  3.2648173284205919
 13.3226128022054819 15.2756361133868950  3.1019483479733059
  6.9461670305087706  9.7895966091794353  2.8755284082205961
 19.0218509985744220  9.7895762103959783  2.7126594255903500
  6.9461457237323900 22.3222554080072690  2.8754229271513982
 19.0218296947715118 22.3222350142451660  2.7125539434466215
  5.0048996372506043  9.7895729477417799  6.0272409985108037
 17.0805836049217774  9.7895525527822915  5.8643720157192565
  5.0048783294616852 22.3222317473474163  6.0271355173799863
 17.0805623018766894 22.3222113594814395  5.8642665334941970
  0.9083290233669697  9.0093237388386935  2.9569519297614386
 12.9840129867996801  9.0093033441678507  2.7940829488101584
  0.9083077149612554 21.5419825500301521  2.9568464480766927
 12.9839916831355975 21.5419621519858637  2.7939774685164132
 -1.0329383704296717  9.0093000806831558  6.1086645198824758
 11.0427455931997986  9.0092796862311779  5.9457955389826180
 -1.0329596785412398 21.5419588928108219  6.1085590382305828
 11.0427242897250864 21.5419384944150849  5.9456900586770214
  9.2260554943321456  3.5232940229099179  0.0317860676473663
 21.3017394762335215  3.5232736204842787 -0.1310829145991698
  9.2260342105049151 16.0559528301036032  0.0316805877491903
 21.3017181831114328 16.0559324305798015 -0.1311883943793246
  7.2847881008384316  3.5232703617434988  3.1834986576368958
 19.3604720831218948  3.5232499642462569  3.0206296756227156
  7.2847668165658899 16.0559291735451311  3.1833931779828628
 19.3604507894616304 16.0559087711817376  3.0205241956704532
 -0.5990630616824223  1.3210095641448218  3.1255745997683255
 11.4766209179275851  1.3209891637742195  2.9627056210276415
 -0.5990843470161739 13.8536683740108639  3.1254691212136123
 11.4765996268644965 13.8536479795036058  2.9626001407800624
 -2.5403304532007831  1.3209859057146189  6.2772871900955183
  9.5353535271356797  1.3209655048186684  6.1144182114372905
 -2.5403517421173190 13.8536447168811563  6.2771817111931147
  9.5353322329192451 13.8536243216305603  6.1143127308960308
 10.7334476981852660 11.2116084095238762 -0.1368367010289658
 22.8091316590637270 11.2115880121699210 -0.2997056848407469
 10.7334263993485433 23.7442672264337915 -0.1369421820957545
 22.8091103595885585 23.7442468250511887 -0.2998111672734790
  8.7921803018154705 11.2115847528946837  3.0148758888790819
 20.8678642658866629 11.2115643542742518  2.8520069053416144
  8.7921590044081199 23.7442435687047606  3.0147704079456492
 20.8678429672122157 23.7442231664100980  2.8519014229654225
  4.6956107556221029  7.5873635672103905 -0.0553755062927193
 16.7712947260484562  7.5873431633456860 -0.2182444878220615
  4.6955894700092369 20.1200223567379091 -0.0554809859642003
 16.7712734344389709 20.1200019594339885 -0.2183499678823581
  2.7543433630346899  7.5873399094750011  3.0963370839241184
 14.8300273323727634  7.5873195056178808  2.9334681023335971
  2.7543220762368645 20.1199986982941610  3.0962316041287878
 14.8300060402681542 20.1199783014579907  2.9333626222101445
  5.4387738679533779  4.9452543290422870  3.0441132371379687
 17.5144578406069265  4.9452339435386019  2.8812442565703056
  5.4387525733326676 17.4779131481752223  3.0440077574324786
 17.5144365449156005 17.4778927498861023  2.8811387765459888
  3.4975064768415991  4.9452306722745645  6.1958258274820208
 15.5731904453065244  4.9452102851245572  6.0329568465592738
  3.4974851791175650 17.4778894904136770  6.1957203474378622
 15.5731691526774600 17.4778690921990609  6.0328513668527872
 -0.8864681611724374  3.6061124858712525  3.0477351867394624
 11.1892158179812995  3.6060920768670455  2.8848662021536260
 -0.8864894515870239 16.1387712914608024  3.0476297050851975
 11.1891945224144340 16.1387508880824733  2.8847607218948590
 -2.8277355506546842  3.6060888228187320  6.1994477772436811
  9.2479484301024719  3.6060684115796140  6.0365787929138923
 -2.8277568483728137 16.1387476379075103  6.1993422949241044
  9.2479271285965687 16.1387272305388016  6.0364733120825607
 11.0208526630097410  8.9265056294867300 -0.0589959433028871
 23.0965366277495789  8.9264852366070002 -0.2218649245832273
 11.0208313729078942 21.4591644316529688 -0.0591014231864926
 23.0965153267133907 21.4591440536842555 -0.2219704045124721
  9.0795852625078162  8.9264819806881324  3.0927166459582720
 21.1552692349339218  8.9264615778214402  2.9298476656890382
  9.0795639762696752 21.4591407779225669  3.0926111664604705
 21.1552479358714400 21.4591203921026441  2.9297421859884696
  4.9830123128737309  9.8724685836283612  0.0224172370801201
 17.0586962821812271  9.8724481835144324 -0.1404517459900577
  4.9829910284017318 22.4051273995544875  0.0223117575780554
 17.0586749912479299 22.4051069927733728 -0.1405572275845993
  3.0417449208940410  9.8724449277038033  3.1741298273582506
 15.1174288893291831  9.8724245265884534  3.0112608441620727
  3.0417236332103901 22.4051037395055559  3.1740243475871011
 15.1174075966662471 22.4050833335924864  3.0111553624011731
  5.1513722068199748  2.6601493560190645  2.9663204201821758
 17.2270561857234625  2.6601289684395013  2.8034514404993938
  5.1513509210182331 15.1928081726544804  2.9662149413021210
 17.2270348964315971 15.1927877787184986  2.8033459600501254
  3.2101048194080408  2.6601257061877686  6.1180330111055614
 15.2857887881946866  2.6601053055020936  5.9551640302530542
  3.2100835264791741 15.1927845134577382  6.1179275316294381
 15.2857675048887671 15.1927641234711874  5.9550585502279345
  1.5522578279779065 11.5739697699127984  0.0306450266635964
 13.6279417971164225 11.5739493660343218 -0.1322239552704705
  1.5522365382590093 24.1066285832141176  0.0305395471967586
 13.6279205087752615 24.1066081820900280 -0.1323294349821389
 -0.3890095644865788 11.5739461138573336  3.1823576168693331
 11.6866744036101302 11.5739257083164819  3.0194886349068621
 -0.3890308559753847 24.1066049241207701  3.1822521372796588
 11.6866531135367584 24.1065845214158649  3.0193831550625632
  8.5821265798430346  0.9586480802103685  2.9580932942408857
 20.6578105513556451  0.9586276853647012  2.7952243140117341
  8.5821052888910714 13.4913068902254487  2.9579878134597832
 20.6577892604727147 13.4912864956083105  2.7951188327624523
  6.6408591874507614  0.9586244241393337  6.1098058843877663
 18.7165431569698377  0.9586040261197545  5.9469369041104194
  6.6408378967169615 13.4912832347511458  6.1097004036473388
 18.7165218666404165 13.4912628372696624  5.9468314229125552
  2.5442733262546131  5.3076169174172732  3.0394833168186879
 14.6199572983548176  5.3075965167642742  2.8766143350119724
  2.5442520336825782 17.8402757287432294  3.0393778340881292
 14.6199360030626551 17.8402553315324184  2.8765088543475548
  0.6030059324852056  5.3075932599612159  6.1911959069317790
 12.6786899049453066  5.3075728587152078  6.0283269251569234
  0.6029846401040113 17.8402520709378223  6.1910904242462346
 12.6786686100664419 17.8402316727824442  6.0282214445134317
  7.5901115202952969  7.2250008870645992 -0.0507459001617323
 19.6657954952892169  7.2249804771580122 -0.2136148844379830
  7.5900902318736856 19.7576596846890453 -0.0508513816122006
 19.6657742037795309 19.7576392812171377 -0.2137203642438626
  5.6488441254659776  7.2249772313229998  3.1009666899565240
 17.7245281024187769  7.2249568181475539  2.9380977057381030
  5.6488228389425190 19.7576360257749819  3.1008612086621836
 17.7245068093096201 19.7576156249672223  2.9379922257867426
