 N  C  H 
        1.0000000000
  18.871398250289005   0.000176277740714  -0.000305792659410
  -0.000108424408689  11.607354866474878  -0.000006229361978
   0.000182304370253   0.000006039583829  11.250562538320336
   48   96   96
 Direct
   0.074674784553862   0.499998264561914   0.333332159111160
   0.574674784553862   0.499998264561914   0.333332159111160
   0.074674784553862   0.999998264561914   0.333332159111160
   0.574674784553862   0.999998264561914   0.333332159111160
   0.074674784553862   0.499998264561914   0.666665492444494
   0.574674784553862   0.499998264561914   0.666665492444494
   0.074674784553862   0.999998264561914   0.666665492444494
   0.574674784553862   0.999998264561914   0.666665492444494
   0.074674784553862   0.499998264561914   0.999998825777827
   0.574674784553862   0.499998264561914   0.999998825777827
   0.074674784553862   0.999998264561914   0.999998825777827
   0.574674784553862   0.999998264561914   0.999998825777827
   0.425326222494394  -0.000001735438086  -0.000001174222173
   0.925326222494393  -0.000001735438086  -0.000001174222173
   0.425326222494394   0.499998264561914  -0.000001174222173
   0.925326222494393   0.499998264561914  -0.000001174222173
   0.425326222494394  -0.000001735438086   0.333332159111160
   0.925326222494393  -0.000001735438086   0.333332159111160
   0.425326222494394   0.499998264561914   0.333332159111160
   0.925326222494393   0.499998264561914   0.333332159111160
   0.425326222494394  -0.000001735438086   0.666665492444493
   0.925326222494393  -0.000001735438086   0.666665492444493
   0.425326222494394   0.499998264561914   0.666665492444493
   0.925326222494393   0.499998264561914   0.666665492444493
   0.324674784553862   0.249998264561914   0.166665492444493
   0.824674784553862   0.249998264561914   0.166665492444493
   0.324674784553862   0.749998264561914   0.166665492444493
   0.824674784553862   0.749998264561914   0.166665492444493
   0.324674784553862   0.249998264561914   0.499998825777827
   0.824674784553862   0.249998264561914   0.499998825777827
   0.324674784553862   0.749998264561914   0.499998825777827
   0.824674784553862   0.749998264561914   0.499998825777827
   0.324674784553862   0.249998264561914   0.833332159111160
   0.824674784553862   0.249998264561914   0.833332159111160
   0.324674784553862   0.749998264561914   0.833332159111160
   0.824674784553862   0.749998264561914   0.833332159111160
   0.175326222494394   0.249998264561914   0.166665492444493
   0.675326222494394   0.249998264561914   0.166665492444493
   0.175326222494394   0.749998264561914   0.166665492444493
   0.675326222494394   0.749998264561914   0.166665492444493
   0.175326222494394   0.249998264561914   0.499998825777827
   0.675326222494394   0.249998264561914   0.499998825777827
   0.175326222494394   0.749998264561914   0.499998825777827
   0.675326222494394   0.749998264561914   0.499998825777827
   0.175326222494394   0.249998264561914   0.833332159111160
   0.675326222494394   0.249998264561914   0.833332159111160
   0.175326222494394   0.749998264561914   0.833332159111160
   0.675326222494394   0.749998264561914   0.833332159111160
   0.037064677242344   0.090440014421302   0.040599794388308
   0.537064677242344   0.090440014421302   0.040599794388308
   0.037064677242344   0.590440014421302   0.040599794388308
   0.537064677242344   0.590440014421302   0.040599794388308
   0.037064677242344   0.090440014421302   0.373933127721642
   0.537064677242344   0.090440014421302   0.373933127721642
   0.037064677242344   0.590440014421302   0.373933127721642
   0.537064677242344   0.590440014421302   0.373933127721642
   0.037064677242344   0.090440014421302   0.707266461054975
   0.537064677242344   0.090440014421302   0.707266461054975
   0.037064677242344   0.590440014421302   0.707266461054975
   0.537064677242344   0.590440014421302   0.707266461054975
   0.037064677242344   0.409556514702526   0.292731190500679
   0.537064677242344   0.409556514702526   0.292731190500679
   0.037064677242344   0.909556514702526   0.292731190500679
   0.537064677242344   0.909556514702526   0.292731190500679
   0.037064677242344   0.409556514702526   0.626064523834012
   0.537064677242344   0.409556514702526   0.626064523834012
   0.037064677242344   0.909556514702526   0.626064523834012
   0.537064677242344   0.909556514702526   0.626064523834012
   0.037064677242344   0.409556514702526   0.959397857167346
   0.537064677242344   0.409556514702526   0.959397857167346
   0.037064677242344   0.909556514702526   0.959397857167346
   0.537064677242344   0.909556514702526   0.959397857167346
   0.462936329805912   0.090440014421302   0.040599794388308
   0.962936329805912   0.090440014421302   0.040599794388308
   0.462936329805912   0.590440014421302   0.040599794388308
   0.962936329805912   0.590440014421302   0.040599794388308
   0.462936329805912   0.090440014421302   0.373933127721642
   0.962936329805912   0.090440014421302   0.373933127721642
   0.462936329805912   0.590440014421302   0.373933127721642
   0.962936329805912   0.590440014421302   0.373933127721642
   0.462936329805912   0.090440014421302   0.707266461054975
   0.962936329805912   0.090440014421302   0.707266461054975
   0.462936329805912   0.590440014421302   0.707266461054975
   0.962936329805912   0.590440014421302   0.707266461054975
   0.462936329805912   0.409556514702526   0.292731190500679
   0.962936329805912   0.409556514702526   0.292731190500679
   0.462936329805912   0.909556514702526   0.292731190500679
   0.962936329805912   0.909556514702526   0.292731190500679
   0.462936329805912   0.409556514702526   0.626064523834012
   0.962936329805912   0.409556514702526   0.626064523834012
   0.462936329805912   0.909556514702526   0.626064523834012
   0.962936329805912   0.909556514702526   0.626064523834012
   0.462936329805912   0.409556514702526   0.959397857167345
   0.962936329805912   0.409556514702526   0.959397857167345
   0.462936329805912   0.909556514702526   0.959397857167345
   0.962936329805912   0.909556514702526   0.959397857167345
   0.287064677242345   0.159556514702526   0.207266461054975
   0.787064677242345   0.159556514702526   0.207266461054975
   0.287064677242345   0.659556514702526   0.207266461054975
   0.787064677242345   0.659556514702526   0.207266461054975
   0.287064677242345   0.159556514702526   0.540599794388308
   0.787064677242345   0.159556514702526   0.540599794388308
   0.287064677242345   0.659556514702526   0.540599794388308
   0.787064677242345   0.659556514702526   0.540599794388308
   0.287064677242345   0.159556514702526   0.873933127721641
   0.787064677242345   0.159556514702526   0.873933127721641
   0.287064677242345   0.659556514702526   0.873933127721641
   0.787064677242345   0.659556514702526   0.873933127721641
   0.212936329805912   0.159556514702526   0.207266461054975
   0.712936329805912   0.159556514702526   0.207266461054975
   0.212936329805912   0.659556514702526   0.207266461054975
   0.712936329805912   0.659556514702526   0.207266461054975
   0.212936329805912   0.159556514702526   0.540599794388308
   0.712936329805912   0.159556514702526   0.540599794388308
   0.212936329805912   0.659556514702526   0.540599794388308
   0.712936329805912   0.659556514702526   0.540599794388308
   0.212936329805912   0.159556514702526   0.873933127721641
   0.712936329805912   0.159556514702526   0.873933127721641
   0.212936329805912   0.659556514702526   0.873933127721641
   0.712936329805912   0.659556514702526   0.873933127721641
   0.212936329805912   0.340440014421302   0.126064523834012
   0.712936329805912   0.340440014421302   0.126064523834012
   0.212936329805912   0.840440014421302   0.126064523834012
   0.712936329805912   0.840440014421302   0.126064523834012
   0.212936329805912   0.340440014421302   0.459397857167345
   0.712936329805912   0.340440014421302   0.459397857167345
   0.212936329805912   0.840440014421302   0.459397857167345
   0.712936329805912   0.840440014421302   0.459397857167345
   0.212936329805912   0.340440014421302   0.792731190500678
   0.712936329805912   0.340440014421302   0.792731190500678
   0.212936329805912   0.840440014421302   0.792731190500678
   0.712936329805912   0.840440014421302   0.792731190500678
   0.287064677242344   0.340440014421303   0.126064523834012
   0.787064677242344   0.340440014421303   0.126064523834012
   0.287064677242344   0.840440014421302   0.126064523834012
   0.787064677242344   0.840440014421302   0.126064523834012
   0.287064677242344   0.340440014421303   0.459397857167345
   0.787064677242344   0.340440014421303   0.459397857167345
   0.287064677242344   0.840440014421302   0.459397857167345
   0.787064677242344   0.840440014421302   0.459397857167345
   0.287064677242344   0.340440014421303   0.792731190500678
   0.787064677242344   0.340440014421303   0.792731190500678
   0.287064677242344   0.840440014421302   0.792731190500678
   0.787064677242344   0.840440014421302   0.792731190500678
   0.066965229103951   0.163363148000008   0.074436815509236
   0.566965229103951   0.163363148000008   0.074436815509236
   0.066965229103951   0.663363148000008   0.074436815509236
   0.566965229103951   0.663363148000008   0.074436815509236
   0.066965229103951   0.163363148000008   0.407770148842569
   0.566965229103951   0.163363148000008   0.407770148842569
   0.066965229103951   0.663363148000008   0.407770148842569
   0.566965229103951   0.663363148000008   0.407770148842569
   0.066965229103951   0.163363148000008   0.741103482175902
   0.566965229103951   0.163363148000008   0.741103482175902
   0.066965229103951   0.663363148000008   0.741103482175902
   0.566965229103951   0.663363148000008   0.741103482175902
   0.066965229103951   0.336633381123821   0.258894169379751
   0.566965229103951   0.336633381123821   0.258894169379751
   0.066965229103951   0.836633381123821   0.258894169379751
   0.566965229103951   0.836633381123821   0.258894169379751
   0.066965229103951   0.336633381123821   0.592227502713084
   0.566965229103951   0.336633381123821   0.592227502713084
   0.066965229103951   0.836633381123821   0.592227502713084
   0.566965229103951   0.836633381123821   0.592227502713084
   0.066965229103951   0.336633381123821   0.925560836046417
   0.566965229103951   0.336633381123821   0.925560836046417
   0.066965229103951   0.836633381123821   0.925560836046417
   0.566965229103951   0.836633381123821   0.925560836046417
   0.433035777944305   0.163363148000008   0.074436815509236
   0.933035777944305   0.163363148000008   0.074436815509236
   0.433035777944305   0.663363148000008   0.074436815509236
   0.933035777944305   0.663363148000008   0.074436815509236
   0.433035777944305   0.163363148000008   0.407770148842569
   0.933035777944305   0.163363148000008   0.407770148842569
   0.433035777944305   0.663363148000008   0.407770148842569
   0.933035777944305   0.663363148000008   0.407770148842569
   0.433035777944305   0.163363148000008   0.741103482175902
   0.933035777944305   0.163363148000008   0.741103482175902
   0.433035777944305   0.663363148000008   0.741103482175902
   0.933035777944305   0.663363148000008   0.741103482175902
   0.433035777944305   0.336633381123821   0.258894169379751
   0.933035777944305   0.336633381123821   0.258894169379751
   0.433035777944305   0.836633381123821   0.258894169379751
   0.933035777944305   0.836633381123821   0.258894169379751
   0.433035777944305   0.336633381123821   0.592227502713084
   0.933035777944305   0.336633381123821   0.592227502713084
   0.433035777944305   0.836633381123821   0.592227502713084
   0.933035777944305   0.836633381123821   0.592227502713084
   0.433035777944305   0.336633381123821   0.925560836046417
   0.933035777944305   0.336633381123821   0.925560836046417
   0.433035777944305   0.836633381123821   0.925560836046417
   0.933035777944305   0.836633381123821   0.925560836046417
   0.316965229103951   0.086633381123821   0.241103482175902
   0.816965229103951   0.086633381123821   0.241103482175902
   0.316965229103951   0.586633381123821   0.241103482175902
   0.816965229103951   0.586633381123821   0.241103482175902
   0.316965229103951   0.086633381123821   0.574436815509236
   0.816965229103951   0.086633381123821   0.574436815509236
   0.316965229103951   0.586633381123821   0.574436815509236
   0.816965229103951   0.586633381123821   0.574436815509236
   0.316965229103951   0.086633381123821   0.907770148842569
   0.816965229103951   0.086633381123821   0.907770148842569
   0.316965229103951   0.586633381123821   0.907770148842569
   0.816965229103951   0.586633381123821   0.907770148842569
   0.183035777944305   0.086633381123821   0.241103482175903
   0.683035777944305   0.086633381123821   0.241103482175903
   0.183035777944305   0.586633381123820   0.241103482175903
   0.683035777944305   0.586633381123820   0.241103482175903
   0.183035777944305   0.086633381123821   0.574436815509236
   0.683035777944305   0.086633381123821   0.574436815509236
   0.183035777944305   0.586633381123820   0.574436815509236
   0.683035777944305   0.586633381123820   0.574436815509236
   0.183035777944305   0.086633381123821   0.907770148842569
   0.683035777944305   0.086633381123821   0.907770148842569
   0.183035777944305   0.586633381123820   0.907770148842569
   0.683035777944305   0.586633381123820   0.907770148842569
   0.183035777944305   0.413363148000007   0.092227502713084
   0.683035777944305   0.413363148000007   0.092227502713084
   0.183035777944305   0.913363148000007   0.092227502713084
   0.683035777944305   0.913363148000007   0.092227502713084
   0.183035777944305   0.413363148000007   0.425560836046417
   0.683035777944305   0.413363148000007   0.425560836046417
   0.183035777944305   0.913363148000007   0.425560836046417
   0.683035777944305   0.913363148000007   0.425560836046417
   0.183035777944305   0.413363148000007   0.758894169379751
   0.683035777944305   0.413363148000007   0.758894169379751
   0.183035777944305   0.913363148000007   0.758894169379751
   0.683035777944305   0.913363148000007   0.758894169379751
   0.316965229103951   0.413363148000008   0.092227502713084
   0.816965229103951   0.413363148000008   0.092227502713084
   0.316965229103951   0.913363148000008   0.092227502713084
   0.816965229103951   0.913363148000008   0.092227502713084
   0.316965229103951   0.413363148000008   0.425560836046417
   0.816965229103951   0.413363148000008   0.425560836046417
   0.316965229103951   0.913363148000008   0.425560836046417
   0.816965229103951   0.913363148000008   0.425560836046417
   0.316965229103951   0.413363148000008   0.758894169379751
   0.816965229103951   0.413363148000008   0.758894169379751
   0.316965229103951   0.913363148000008   0.758894169379751
   0.816965229103951   0.913363148000008   0.758894169379751
