 C  O 
 1.0000000000000000
    11.2479999999999993    0.0000000000000000    0.0000000000000000
     0.0000000000000000   11.2479999999999993    0.0000000000000000
     0.0000000000000000    0.0000000000000000   11.2479999999999993
 C   O  
  32  64
Cartesian
  0.3373713108726283  0.3373712503219393  0.3373712470271609
  3.1493712612824010  0.3373712072033831  3.1493711807261144
  0.3373712622326718  3.1493711904094055  3.1493712098246198
  3.1493712340744473  3.1493712196727901  0.3373712205115694
  0.3373713108726283  0.3373712503219393  5.9613712470271603
  3.1493712612824010  0.3373712072033831  8.7733711807261141
  0.3373712622326718  3.1493711904094055  8.7733712098246190
  3.1493712340744473  3.1493712196727901  5.9613712205115696
  0.3373713108726283  5.9613712503219389  0.3373712470271609
  3.1493712612824010  5.9613712072033831  3.1493711807261144
  0.3373712622326718  8.7733711904094047  3.1493712098246198
  3.1493712340744473  8.7733712196727893  0.3373712205115694
  0.3373713108726283  5.9613712503219389  5.9613712470271603
  3.1493712612824010  5.9613712072033831  8.7733711807261141
  0.3373712622326718  8.7733711904094047  8.7733712098246190
  3.1493712340744473  8.7733712196727893  5.9613712205115696
  5.9613713108726278  0.3373712503219393  0.3373712470271609
  8.7733712612824011  0.3373712072033831  3.1493711807261144
  5.9613712622326718  3.1493711904094055  3.1493712098246198
  8.7733712340744461  3.1493712196727901  0.3373712205115694
  5.9613713108726278  0.3373712503219393  5.9613712470271603
  8.7733712612824011  0.3373712072033831  8.7733711807261141
  5.9613712622326718  3.1493711904094055  8.7733712098246190
  8.7733712340744461  3.1493712196727901  5.9613712205115696
  5.9613713108726278  5.9613712503219389  0.3373712470271609
  8.7733712612824011  5.9613712072033831  3.1493711807261144
  5.9613712622326718  8.7733711904094047  3.1493712098246198
  8.7733712340744461  8.7733712196727893  0.3373712205115694
  5.9613713108726278  5.9613712503219389  5.9613712470271603
  8.7733712612824011  5.9613712072033831  8.7733711807261141
  5.9613712622326718  8.7733711904094047  8.7733712098246190
  8.7733712340744461  8.7733712196727893  5.9613712205115696
  1.0121137663027600  1.0121136699997910  1.0121136994055160
  5.2866287377673276  5.2866287447478015  5.2866287140494608
  2.4746287758622763  5.2866287927966162  3.8241137152822704
  3.8241137112758490  1.0121136472157113  2.4746287056685357
  5.2866286229632315  3.8241138356630344  2.4746285374957875
  1.0121139055823221  2.4746285866482429  3.8241138574864935
  3.8241136394523223  2.4746287548915635  5.2866287794884306
  2.4746288728188652  3.8241136424273137  1.0121136587492323
  1.0121137663027600  1.0121136699997910  6.6361136994055157
  5.2866287377673276  5.2866287447478015 10.9106287140494604
  2.4746287758622763  5.2866287927966162  9.4481137152822701
  3.8241137112758490  1.0121136472157113  8.0986287056685349
  5.2866286229632315  3.8241138356630344  8.0986285374957863
  1.0121139055823221  2.4746285866482429  9.4481138574864936
  3.8241136394523223  2.4746287548915635 10.9106287794884302
  2.4746288728188652  3.8241136424273137  6.6361136587492320
  1.0121137663027600  6.6361136699997907  1.0121136994055160
  5.2866287377673276 10.9106287447478003  5.2866287140494608
  2.4746287758622763 10.9106287927966168  3.8241137152822704
  3.8241137112758490  6.6361136472157121  2.4746287056685357
  5.2866286229632315  9.4481138356630332  2.4746285374957875
  1.0121139055823221  8.0986285866482444  3.8241138574864935
  3.8241136394523223  8.0986287548915641  5.2866287794884306
  2.4746288728188652  9.4481136424273124  1.0121136587492323
  1.0121137663027600  6.6361136699997907  6.6361136994055157
  5.2866287377673276 10.9106287447478003 10.9106287140494604
  2.4746287758622763 10.9106287927966168  9.4481137152822701
  3.8241137112758490  6.6361136472157121  8.0986287056685349
  5.2866286229632315  9.4481138356630332  8.0986285374957863
  1.0121139055823221  8.0986285866482444  9.4481138574864936
  3.8241136394523223  8.0986287548915641 10.9106287794884302
  2.4746288728188652  9.4481136424273124  6.6361136587492320
  6.6361137663027607  1.0121136699997910  1.0121136994055160
 10.9106287377673272  5.2866287447478015  5.2866287140494608
  8.0986287758622755  5.2866287927966162  3.8241137152822704
  9.4481137112758500  1.0121136472157113  2.4746287056685357
 10.9106286229632303  3.8241138356630344  2.4746285374957875
  6.6361139055823219  2.4746285866482429  3.8241138574864935
  9.4481136394523215  2.4746287548915635  5.2866287794884306
  8.0986288728188658  3.8241136424273137  1.0121136587492323
  6.6361137663027607  1.0121136699997910  6.6361136994055157
 10.9106287377673272  5.2866287447478015 10.9106287140494604
  8.0986287758622755  5.2866287927966162  9.4481137152822701
  9.4481137112758500  1.0121136472157113  8.0986287056685349
 10.9106286229632303  3.8241138356630344  8.0986285374957863
  6.6361139055823219  2.4746285866482429  9.4481138574864936
  9.4481136394523215  2.4746287548915635 10.9106287794884302
  8.0986288728188658  3.8241136424273137  6.6361136587492320
  6.6361137663027607  6.6361136699997907  1.0121136994055160
 10.9106287377673272 10.9106287447478003  5.2866287140494608
  8.0986287758622755 10.9106287927966168  3.8241137152822704
  9.4481137112758500  6.6361136472157121  2.4746287056685357
 10.9106286229632303  9.4481138356630332  2.4746285374957875
  6.6361139055823219  8.0986285866482444  3.8241138574864935
  9.4481136394523215  8.0986287548915641  5.2866287794884306
  8.0986288728188658  9.4481136424273124  1.0121136587492323
  6.6361137663027607  6.6361136699997907  6.6361136994055157
 10.9106287377673272 10.9106287447478003 10.9106287140494604
  8.0986287758622755 10.9106287927966168  9.4481137152822701
  9.4481137112758500  6.6361136472157121  8.0986287056685349
 10.9106286229632303  9.4481138356630332  8.0986285374957863
  6.6361139055823219  8.0986285866482444  9.4481138574864936
  9.4481136394523215  8.0986287548915641 10.9106287794884302
  8.0986288728188658  9.4481136424273124  6.6361136587492320
