 C  H  O                                
   1.0000000000000000     
    22.0000000000000000    0.0000000000000000    0.0000000000000000
     0.0000000000000000   22.0000000000000000    0.0000000000000000
     0.0000000000000000    0.0000000000000000   22.0000000000000000
   C    H    O 
     3     6     3
Direct
  0.1876733154356955  0.2168867221293667  0.2207111533159889
  0.2758261400357966  0.2769969674571584  0.2206904641196701
  0.1877587600240886  0.3114729088840846  0.2700835818358627
  0.3248282369168436  0.2744474015641813  0.2254903247602726
  0.1716965248714075  0.2373665325213778  0.1779300928743410
  0.1721519825741922  0.1703393621308322  0.2255263262345011
  0.1722997251500402  0.3341584632982944  0.3110364930901852
  0.1717850891214070  0.3348850399573138  0.2288328897396426
  0.2625822088175553  0.2993404559112065  0.1779090915762254
  0.2529220831071086  0.2158920214564901  0.2213765769470086
  0.2530083596200754  0.3114028656114556  0.2712321962917628
  0.1639934834167036  0.2507053499873280  0.2708889910327212

  0.00000000E+00  0.00000000E+00  0.00000000E+00
  0.00000000E+00  0.00000000E+00  0.00000000E+00
  0.00000000E+00  0.00000000E+00  0.00000000E+00
  0.00000000E+00  0.00000000E+00  0.00000000E+00
  0.00000000E+00  0.00000000E+00  0.00000000E+00
  0.00000000E+00  0.00000000E+00  0.00000000E+00
  0.00000000E+00  0.00000000E+00  0.00000000E+00
  0.00000000E+00  0.00000000E+00  0.00000000E+00
  0.00000000E+00  0.00000000E+00  0.00000000E+00
  0.00000000E+00  0.00000000E+00  0.00000000E+00
  0.00000000E+00  0.00000000E+00  0.00000000E+00
  0.00000000E+00  0.00000000E+00  0.00000000E+00
