 C  H  O 
 1.0000000000000000
     6.2081083115044633    0.0020086567598059    0.0000000000116960
    -0.0034340191916832    6.1919629934951130    0.0000000000222264
     0.0000000000104103    0.0000000000193397    5.4205647069643401
 C   H   O  
   8   4   8
Cartesian
  1.1489683974720546  0.4785425775144889  1.3551411759043233
  5.0557058957424417  5.7154290816593045  4.0654235303864192
  0.6112722427566344  1.8498180460061482  1.3551411772852400
  5.5934020441437866  4.3441536088028885  4.0654235294294363
  1.9124657481815655  2.4080202911317876  1.3551411762442394
  4.2922085404416581  3.7859513704861572  4.0654235319320033
  2.5390082927145783  1.0822101058948363  1.3551411775631412
  3.6656659928026829  5.1117615542309132  4.0654235292317109
  1.7332883756359192  4.3463067869363856  1.3551411767615034
  4.4713859446499953  1.8476648791001333  4.0654235302565356
  4.8900237903244141  1.6951622921565910  1.3551411767604615
  1.3146504986850309  4.4988093206580082  4.0654235302510413
  0.6610254006004278  5.5300130220755106  1.3551411769995982
  5.5436488975942693  0.6639586354191634  4.0654235303673332
  5.6322871224386777  2.4011927898907373  1.3551411766740364
  0.5723871544106057  3.7927788390806496  4.0654235303648747
  2.4404177801524960  3.6054814278924718  1.3551411768456239
  3.7642565243285557  2.5884902278286841  4.0654235296593813
  3.6959526725458529  0.6367997364083450  1.3551411765030343
  2.5087216076087002  5.5571719095686758  4.0654235305635664
