 C  O  N  H 
 1.0000000000000000
    22.0000000000000000    0.0000000000000000    0.0000000000000000
     0.0000000000000000   22.0000000000000000    0.0000000000000000
     0.0000000000000000    0.0000000000000000   22.0000000000000000
 C   O   N   H  
   1   1   2   4
Cartesian
  6.0894953581824378  6.2507402370738827  4.0011384136065757
  6.7004961910176428  7.3134581240949554  3.9989130339392207
  4.7287024505109807  6.1550454742163101  3.6968200619213567
  6.6920021817119801  5.0275428776680160  4.3082185854824697
  4.1972810126602660  5.4009180713926881  4.1102044561677387
  4.2535406660245689  7.0463193248411882  3.6912525010816628
  6.3069050080862077  4.1875632517160231  3.8981723239756976
  7.7013271317915688  5.0653426389967438  4.3118406238322295
