 H  C  N 
 1.0000000000000000
    25.0000000000000000    0.0000000000000000    0.0000000000000000
     0.0000000000000000   25.0000000000000000    0.0000000000000000
     0.0000000000000000    0.0000000000000000   25.0000000000000000
 H   C   N  
  12   6   4
Cartesian
 14.2900000000000009 11.5482499999999995 11.2987500000000001
 12.8294999999999995 11.0319500000000001 10.4044500000000006
 10.8681000000000001 10.3385500000000015 11.6057500000000005
 10.8681000000000001 10.3385500000000015 13.3941499999999998
 14.2900000000000009 11.5482499999999995 13.7011500000000002
 12.8294999999999995 11.0319500000000001 14.5954499999999996
 10.8681000000000001 12.4188500000000008 10.4044500000000006
 10.8681000000000001 13.9677500000000006 11.2987500000000001
 14.2900000000000009 13.6288499999999999 12.4999500000000001
 12.8294999999999995 14.6614500000000003 12.4999500000000001
 10.8681000000000001 12.4188500000000008 14.5955499999999994
 10.8681000000000001 13.9677500000000006 13.7011500000000002
 13.1886000000000010 11.5526499999999999 11.3063500000000001
 11.2395999999999994 10.8636499999999998 12.4999500000000001
 13.1886000000000010 11.5526499999999999 13.6935500000000001
 11.2396999999999991 12.9308499999999995 11.3062500000000004
 13.1886000000000010 13.6200500000000009 12.4999500000000001
 11.2396999999999991 12.9308499999999995 13.6937499999999996
 12.7154000000000007 10.8235500000000009 12.4999500000000001
 12.7155000000000005 12.9508500000000009 11.2716500000000011
 10.7100000000000009 12.2418499999999995 12.4999500000000001
 12.7155000000000005 12.9508500000000009 13.7281499999999994
