 C  H  O 
 1.0000000000000000
    19.0000000000000000    0.0000000000000000    0.0000000000000000
     0.0000000000000000   19.0000000000000000    0.0000000000000000
     0.0000000000000000    0.0000000000000000   19.0000000000000000
 C   H   O  
   6   8   2
Cartesian
  5.1668231496487351  5.9822421032819513  7.0151640070386287
  6.6754103229160204  6.1824367897134671  6.7388116502912689
  6.2527198739025573  8.5477850487809164  7.7249251654524462
  5.0628716533577460  8.5624910581678613  6.7368316770516543
  7.2516227914380460  7.4192471179477089  7.4395951539212932
  4.3272897081693333  7.2182303822506473  6.6682710961894207
  7.2638334989348783  5.3118529079370989  7.0303907003041148
  6.8360990221430571  6.3231152245694666  5.6617661619618476
  5.0124447902535891  5.7823044348986405  8.0837287055809615
  5.8803138695068666  8.3925533052348076  8.7461279551600590
  6.7915234217479279  9.4958537551784694  7.7306641929417221
  5.4289673182205220  8.7769820344471210  5.7241096770129296
  4.3400541539290227  9.3424633806108748  6.9783984597939970
  4.7624139264279579  5.1247849560150334  6.4762791468140124
  8.4275194918099263  7.5000774851364227  7.7497504573894167
  3.1513930075941592  7.1374000158292246  6.3581157930962133
