 C  O  H 
 1.0000000000000000
    11.1783778485124863    0.0000052911118141    0.0483291026711804
     0.0000032992191036    6.6491844784613594   -0.0000008638507956
    -1.0980861923098251   -0.0000018745255345   11.2237817657623271
 C   O   H  
  36  16  32
Cartesian
  1.7018253842818232  3.7085747702278948  0.7761958196108670
  8.9275127162435357  0.3839865009840471  4.8840223468675497
  8.3784692132739877  2.9406125027214092 10.4959133733575491
  1.1527818233448299  6.2652007496157234  6.3880868148796761
  2.8245122491144028  3.1562133581583480  0.0669050394958402
  7.8048293141847287  6.4808096193176805  5.5933125635844290
  7.2557823369756589  3.4929738904969638 11.2052041526236419
  2.2754652169728629  0.1683776445050215  5.6787965960452427
  3.2965082155783101  1.8803142085186413  0.4585909579679834
  7.3328322419577789  5.2049110087643875  5.2016261421875010
  6.7837863511111802  4.7688730368537300 10.8135182430505790
  2.7474622932017745  1.4442762485559208  6.0704830346860836
  2.7478012328683348  1.2001403164663471  1.5346071932604519
  7.8815384012075942  4.5247373117222054  4.1256093924731356
  7.3324933280827755  5.4490469469830565  9.7375020163887864
  2.1987561489300287  2.1244499238301482  7.1464998057422706
  1.6768257275625320  1.7582038859909503  2.2497173856719392
  8.9525139942029863  5.0828006480722525  3.4104991506814382
  8.4034688544489722  4.8909834044508598  9.0223918318478464
  1.1277805539360457  1.5663865811053190  7.8616100392349324
  1.1629098567647840  2.9859218033732491  1.8559902028667994
  9.4664307182068406  6.3105181355036688  3.8042266283396997
  8.9173847447107661  3.6632654928062922  9.4161190075370751
  0.6138638216317580  0.3386691042420712  7.4678825396256467
  1.0148190551749112  4.9980852980069788  0.4362017599870896
  9.6145195064558955  1.6734969721183179  5.2240162059592832
  9.0654755400460729  1.6511019677814709 10.8359074113652945
  0.4657750491530975  4.9756902690271829  6.0480929613180532
  3.1304608099438433  4.8535238283608333 10.5267862355587987
  6.4007910597993041  1.5289367286118423  6.3572142858437850
  6.9498337479538108  1.7956634219284233  0.7453228882670379
  3.6795034769410906  5.1202505593194108  4.9148948268981787
  3.6668426338890177  5.5087295381886747  9.2786391477108001
  5.8644086742719415  2.1841421502980727  7.6053612701661608
  6.4134519243143249  1.1404576569978133  1.9934699473519015
  4.2158859144793279  4.4650452177453461  3.6667478259347530
  0.3845153375577963  5.6574142777197700 10.5956020785932736
  9.1467374134788120  2.3328279606738906  6.2883978457470251
  9.6957792359675903  0.9917729572807342  0.6765070630684937
  0.9335571527888735  4.3163592753570610  4.9837113304171368
  0.0467628807966851  5.4106654771165257  1.0972975844225228
 10.5825755056090820  2.0860770980093846  4.5629201506127126
 10.0335317271549602  1.2385218064239532 10.1748115943754307
 -0.5022809456019238  4.5631101370587448  6.7091890194062227
  2.3618767757423864  3.7599351329700403 10.2563305269082470
  7.1693760310995183  0.4353487130418964  6.6276701668817566
  7.7184178076977306  2.8892520875198695  1.0157786469889181
  2.9109184919446478  6.2138385721498137  4.6444389748956212
  4.4856290323492818  5.2088160396612500  0.4513290523430371
  6.1437090251100184  1.8842267768890453  5.2088896205871169
  5.5946655173047057  1.4403712697015312 10.8207800546929782
  3.9365854861379699  4.7649604613297152  6.0632194816257163
  3.0287757326704901  1.4589678465916189 11.1286334797992197
  6.5024784743938300  4.7835667189990279  5.7553655178074310
  7.0515188207758905  5.1902193784306476  0.1434757176748636
  3.5778160522397595  1.8656205514703177  5.5167436548455706
  3.1540803752765201  0.2380553473417536  1.8217018312577737
  7.4752586134072638  3.5626527219331243  3.8385143481676445
  6.9262141648467859  6.4111319072300299  9.4504073775908033
  2.6050359470050592  3.0865345026570430  7.4335948699198653
  1.2513109245947756  1.2359188762071991  3.0958105272960537
  9.3780282453131196  4.5605157961710487  2.5644056528509984
  8.8289836543840963  5.4132684301078768  8.1762986972565912
  0.7022663063821962  2.0886714196122456  8.7077035475369780
  0.3218290394506325  3.4043639749232386  2.3900166443519701
 10.3075082766238975  0.0797755230920511  3.2702008653018435
  9.7584655757671630  3.2448233443537875  8.8820925712010474
 -0.2272137415726258  6.5694117149842777  8.0019082919984026
  4.1468423196316513  6.4495892311692904  9.5446120180979754
  5.3844077882380157  3.1250010655744469  7.3393879755749900
  5.9334521317235893  0.1995980345804249  1.7274970147896080
  4.6958868157406970  3.5241862974340532  3.9327210800467305
  2.8733332306543029  5.6638914127859712  8.5495147101565969
  6.6579181624498904  2.3393051797850566  8.3344853872623652
  7.2069613604629783  0.9852956293590296  2.7225943169243769
  3.4223764566851993  4.3098822114214421  2.9376236733974590
  4.4049854273996134  4.8469771347875206  8.8167110767385672
  5.1262668979893453  1.5223888728776636  8.0672897836489366
  5.6753092331306290  1.8022100907817438  2.4553981304424135
  4.9540276913263508  5.1267985405009417  3.2048193756459593
 -0.1717246770335930  6.4814066046252945 10.4479949316149590
  9.7029775225167167  3.1568201512502987  6.4360047549430037
 10.2520192581621572  0.1677806351390917  0.8241142077810714
  0.3773170525521344  3.4923670784478529  4.8361044260905217
