 H  N 
 1.0000000000000000
    10.2609999999999992    0.0000000000000000    0.0000000000000000
     0.0000000000000000   10.2609999999999992    0.0000000000000000
     0.0000000000000000    0.0000000000000000   10.2609999999999992
 H   N  
  96  32
Cartesian
  1.8619843972169217  1.3963172141891569  0.5326323261213968
  1.3963841429897004  0.5326044612296523  1.8620832970905277
  0.5325663652506789  1.8619145252948897  1.3963355698286255
  4.4272334231418879  1.1689370064564837  4.5978676738786026
  3.9616352100103169  2.0326496816363080  3.2684156180846737
  3.0978166756060466  0.7033395886573032  3.7341637614294219
  3.7341239665839021  3.0978565167703205  0.7031700062715796
  4.5979336347493209  4.4271602851190259  1.1689211800830577
  2.0326861606672466  3.2685907107689687  3.9615783365101911
  0.7032690524980989  3.7341870335864642  3.0978778991875884
  1.1688765282613287  4.5978955387703477  4.4273276474931871
  3.2685158763051438  3.9615663156641800  2.0326204624615625
  1.8619843972169217  1.3963172141891569  5.6631323261213966
  1.3963841429897004  0.5326044612296523  6.9925832970905271
  0.5325663652506789  1.8619145252948897  6.5268355698286245
  4.4272334231418879  1.1689370064564837  9.7283676738786014
  3.9616352100103169  2.0326496816363080  8.3989156180846738
  3.0978166756060466  0.7033395886573032  8.8646637614294228
  3.7341239665839021  3.0978565167703205  5.8336700062715794
  4.5979336347493209  4.4271602851190259  6.2994211800830575
  2.0326861606672466  3.2685907107689687  9.0920783365101911
  0.7032690524980989  3.7341870335864642  8.2283778991875884
  1.1688765282613287  4.5978955387703477  9.5578276474931876
  3.2685158763051438  3.9615663156641800  7.1631204624615616
  1.8619843972169217  6.5268172141891565  0.5326323261213968
  1.3963841429897004  5.6631044612296515  1.8620832970905277
  0.5325663652506789  6.9924145252948895  1.3963355698286255
  4.4272334231418879  6.2994370064564835  4.5978676738786026
  3.9616352100103169  7.1631496816363072  3.2684156180846737
  3.0978166756060466  5.8338395886573027  3.7341637614294219
  3.7341239665839021  8.2283565167703205  0.7031700062715796
  4.5979336347493209  9.5576602851190255  1.1689211800830577
  2.0326861606672466  8.3990907107689683  3.9615783365101911
  0.7032690524980989  8.8646870335864634  3.0978778991875884
  1.1688765282613287  9.7283955387703465  4.4273276474931871
  3.2685158763051438  9.0920663156641801  2.0326204624615625
  1.8619843972169217  6.5268172141891565  5.6631323261213966
  1.3963841429897004  5.6631044612296515  6.9925832970905271
  0.5325663652506789  6.9924145252948895  6.5268355698286245
  4.4272334231418879  6.2994370064564835  9.7283676738786014
  3.9616352100103169  7.1631496816363072  8.3989156180846738
  3.0978166756060466  5.8338395886573027  8.8646637614294228
  3.7341239665839021  8.2283565167703205  5.8336700062715794
  4.5979336347493209  9.5576602851190255  6.2994211800830575
  2.0326861606672466  8.3990907107689683  9.0920783365101911
  0.7032690524980989  8.8646870335864634  8.2283778991875884
  1.1688765282613287  9.7283955387703465  9.5578276474931876
  3.2685158763051438  9.0920663156641801  7.1631204624615616
  6.9924843972169226  1.3963172141891569  0.5326323261213968
  6.5268841429897009  0.5326044612296523  1.8620832970905277
  5.6630663652506783  1.8619145252948897  1.3963355698286255
  9.5577334231418867  1.1689370064564837  4.5978676738786026
  9.0921352100103157  2.0326496816363080  3.2684156180846737
  8.2283166756060453  0.7033395886573032  3.7341637614294219
  8.8646239665839026  3.0978565167703205  0.7031700062715796
  9.7284336347493205  4.4271602851190259  1.1689211800830577
  7.1631861606672471  3.2685907107689687  3.9615783365101911
  5.8337690524980985  3.7341870335864642  3.0978778991875884
  6.2993765282613285  4.5978955387703477  4.4273276474931871
  8.3990158763051426  3.9615663156641800  2.0326204624615625
  6.9924843972169226  1.3963172141891569  5.6631323261213966
  6.5268841429897009  0.5326044612296523  6.9925832970905271
  5.6630663652506783  1.8619145252948897  6.5268355698286245
  9.5577334231418867  1.1689370064564837  9.7283676738786014
  9.0921352100103157  2.0326496816363080  8.3989156180846738
  8.2283166756060453  0.7033395886573032  8.8646637614294228
  8.8646239665839026  3.0978565167703205  5.8336700062715794
  9.7284336347493205  4.4271602851190259  6.2994211800830575
  7.1631861606672471  3.2685907107689687  9.0920783365101911
  5.8337690524980985  3.7341870335864642  8.2283778991875884
  6.2993765282613285  4.5978955387703477  9.5578276474931876
  8.3990158763051426  3.9615663156641800  7.1631204624615616
  6.9924843972169226  6.5268172141891565  0.5326323261213968
  6.5268841429897009  5.6631044612296515  1.8620832970905277
  5.6630663652506783  6.9924145252948895  1.3963355698286255
  9.5577334231418867  6.2994370064564835  4.5978676738786026
  9.0921352100103157  7.1631496816363072  3.2684156180846737
  8.2283166756060453  5.8338395886573027  3.7341637614294219
  8.8646239665839026  8.2283565167703205  0.7031700062715796
  9.7284336347493205  9.5576602851190255  1.1689211800830577
  7.1631861606672471  8.3990907107689683  3.9615783365101911
  5.8337690524980985  8.8646870335864634  3.0978778991875884
  6.2993765282613285  9.7283955387703465  4.4273276474931871
  8.3990158763051426  9.0920663156641801  2.0326204624615625
  6.9924843972169226  6.5268172141891565  5.6631323261213966
  6.5268841429897009  5.6631044612296515  6.9925832970905271
  5.6630663652506783  6.9924145252948895  6.5268355698286245
  9.5577334231418867  6.2994370064564835  9.7283676738786014
  9.0921352100103157  7.1631496816363072  8.3989156180846738
  8.2283166756060453  5.8338395886573027  8.8646637614294228
  8.8646239665839026  8.2283565167703205  5.8336700062715794
  9.7284336347493205  9.5576602851190255  6.2994211800830575
  7.1631861606672471  8.3990907107689683  9.0920783365101911
  5.8337690524980985  8.8646870335864634  8.2283778991875884
  6.2993765282613285  9.7283955387703465  9.5578276474931876
  8.3990158763051426  9.0920663156641801  7.1631204624615616
  1.0447089052218157  1.0446797499661162  1.0447257820201776
  3.6099584744924318  1.5205736068634697  4.0857751645303653
  4.0858081124012777  3.6099279813637146  1.5205195114020167
  1.5205589137633708  4.0858269215853502  3.6099790006973396
  1.0447089052218157  1.0446797499661162  6.1752257820201768
  3.6099584744924318  1.5205736068634697  9.2162751645303658
  4.0858081124012777  3.6099279813637146  6.6510195114020165
  1.5205589137633708  4.0858269215853502  8.7404790006973396
  1.0447089052218157  6.1751797499661158  1.0447257820201776
  3.6099584744924318  6.6510736068634690  4.0857751645303653
  4.0858081124012777  8.7404279813637142  1.5205195114020167
  1.5205589137633708  9.2163269215853489  3.6099790006973396
  1.0447089052218157  6.1751797499661158  6.1752257820201768
  3.6099584744924318  6.6510736068634690  9.2162751645303658
  4.0858081124012777  8.7404279813637142  6.6510195114020165
  1.5205589137633708  9.2163269215853489  8.7404790006973396
  6.1752089052218153  1.0446797499661162  1.0447257820201776
  8.7404584744924314  1.5205736068634697  4.0857751645303653
  9.2163081124012773  3.6099279813637146  1.5205195114020167
  6.6510589137633707  4.0858269215853502  3.6099790006973396
  6.1752089052218153  1.0446797499661162  6.1752257820201768
  8.7404584744924314  1.5205736068634697  9.2162751645303658
  9.2163081124012773  3.6099279813637146  6.6510195114020165
  6.6510589137633707  4.0858269215853502  8.7404790006973396
  6.1752089052218153  6.1751797499661158  1.0447257820201776
  8.7404584744924314  6.6510736068634690  4.0857751645303653
  9.2163081124012773  8.7404279813637142  1.5205195114020167
  6.6510589137633707  9.2163269215853489  3.6099790006973396
  6.1752089052218153  6.1751797499661158  6.1752257820201768
  8.7404584744924314  6.6510736068634690  9.2162751645303658
  9.2163081124012773  8.7404279813637142  6.6510195114020165
  6.6510589137633707  9.2163269215853489  8.7404790006973396
