 C  H  N 
 1.0000000000000000
    16.5703340646116288   -0.0000059691403470    0.0000006652511850
    -0.0000045607316160   12.7286801791484550   -0.0000004153032300
     0.0000007870446050   -0.0000006445244290   20.7286793792171338
 C   H   N  
 144 192  96
Cartesian
  2.4100581603946125  0.7211094798996015  2.7034254709326717
 10.6952251927230382  0.7211064953721291  2.7034258035950494
  2.4100584211672715  0.7211092649808979  9.6129852634329982
 10.6952254534890230  0.7211062804027486  9.6129855960583122
  2.4100586820286436  0.7211090481849607 16.5225450546708892
 10.6952257143505918  0.7211060636312856 16.5225453873133183
  6.5526391775996400 12.0075754925407239  4.2061104955434434
 14.8378062098495924 12.0075725080739595  4.2061108282583586
  6.5526394387574776 12.0075752783262448 11.1156702894422992
 14.8378064710343001 12.0075722938018821 11.1156706221088761
  6.5526396995144474 12.0075750654434383 18.0252300843799418
 14.8378067317975386 12.0075720807946489 18.0252304169593209
  2.4100578524401128  5.6432368563423498  6.1582054966162545
 10.6952248847425953  5.6432338717963564  6.1582058292244843
  2.4100581118025355  5.6432366435605914 13.0677652872873260
 10.6952251441402204  5.6432336589246876 13.0677656199682701
  2.4100583757931768  5.6432364287932817 19.9773250808495995
 10.6952254081123588  5.6432334442364374 19.9773254134702505
  6.5526395294520672  7.0854483880967916  0.7513310289703680
 14.8378065617068575  7.0854454034837850  0.7513313616413507
  6.5526397934827854  7.0854481752207548  7.6608908201430914
 14.8378068257747042  7.0854451905951779  7.6608911528114447
  6.5526400531795721  7.0854479577393823 14.5704506159007554
 14.8378070855205664  7.0854449732378226 14.5704509484677605
  3.2495163099139432  1.5120518273900905  3.5174366769326659
 11.5346833420799086  1.5120488428816554  3.5174370095543566
  3.2495165772580310  1.5120516099324761 10.4269964698483850
 11.5346836095299778  1.5120486253803516 10.4269968024753314
  3.2495168474882936  1.5120513912900562 17.3365562629070808
 11.5346838797164377  1.5120484067594120 17.3365565955337786
  7.3920975737392851 11.2166323805369643  3.3921003291786995
 15.6772646063915779 11.2166293961333015  3.3921006618047720
  7.3920978409548610 11.2166321681449705 10.3016601223233621
 15.6772648734226152 11.2166291836507028 10.3016604549482800
  7.3920981113709070 11.2166319572135418 17.2112199154414149
 15.6772651436272188 11.2166289726289108 17.2112202480725998
  3.2495159493433654  4.8522940023367447  0.0626560354073102
 11.5346829816280891  4.8522910177511500  0.0626563680370548
  3.2495162039392369  4.8522937838056626  6.9722158284593245
 11.5346832362971270  4.8522907992613087  6.9722161610842397
  3.2495164789929358  4.8522935752697771 13.8817756213789316
 11.5346835110936272  4.8522905906020597 13.8817759540038725
  7.3920979773688282  7.8763904653411352  6.8468796383109467
 15.6772650098085045  7.8763874807100400  6.8468799709341237
  7.3920982523342396  7.8763902443224652 13.7564394314803842
 15.6772652844154603  7.8763872598602509 13.7564397641058402
  7.3920985104242680  7.8763900316049416 20.6659992245047306
 15.6772655429565564  7.8763870469224564 20.6659995571330555
  2.4428542482510376  2.5513671249259926  3.9637550309809342
 10.7280212805611619  2.5513641402317435  3.9637553635240619
  2.4428545095115428  2.5513669149846696 10.8733148269969320
 10.7280215418351705  2.5513639303832867 10.8733151596070794
  2.4428547718138360  2.5513667076824502 17.7828746251339780
 10.7280218041236637  2.5513637230330923 17.7828749577075840
  6.5854352515831440 10.1773172754305286  2.9457820181641479
 14.8706022839101504 10.1773142905252243  2.9457823505570135
  6.5854355132555060 10.1773170558854673  9.8553418082954316
 14.8706025455672552 10.1773140711641030  9.8553421408173545
  6.5854357756994677 10.1773168332851025 16.7649015961056485
 14.8706028079383099 10.1773138487639638 16.7649019287862018
  2.4428539593587741  3.8129787500410646  0.5089745064769122
 10.7280209916765923  3.8129757654960792  0.5089748390892044
  2.4428542216369067  3.8129785425709461  7.4185342945588086
 10.7280212539507485  3.8129755579427655  7.4185346272261041
  2.4428544827968590  3.8129783154852159 14.3280940954899663
 10.7280215150923546  3.8129753311157195 14.3280944279769678
  6.5854355618730027  8.9157055276446826  6.4005614742902743
 14.8706025941982762  8.9157025432015526  6.4005618068232302
  6.5854358237142563  8.9157053249427189 13.3101212593506624
 14.8706028560121855  8.9157023401513289 13.3101215921279330
  6.5854360865357089  8.9157051059996810 20.2196810550287118
 14.8706031188334542  8.9157021216490033 20.2196813875092651
  5.9177937864050474  2.3257622411837438  6.3778091989339183
 14.2029608186984415  2.3257592566099823  6.3778095315570642
  5.9177940502994435  2.3257620279823561 13.2873689911544677
 14.2029610826124930  2.3257590433919284 13.2873693238025030
  5.9177943112015816  2.3257618119631678 20.1969287846937107
 14.2029613435964421  2.3257588275589853 20.1969291172039149
  1.7752079446210181 10.4029209846263075  0.5317282278448696
 10.0603749769244715 10.4029180000108621  0.5317285605130190
  1.7752082054420244 10.4029207708929956  7.4412880205525704
 10.0603752377656193 10.4029177863000797  7.4412883531914558
  1.7752084687085958 10.4029205541192429 14.3508478150179819
 10.0603755010023406 10.4029175695499134 14.3508481476484722
  5.9177940248783694  4.0385794086387063  2.9230282996349297
 14.2029610571391132  4.0385764241178173  2.9230286322869801
  5.9177942882675465  4.0385791921470187  9.8325880916325534
 14.2029613206282956  4.0385762074861082  9.8325884241978141
  5.9177945510477459  4.0385789766367957 16.7421478842695244
 14.2029615833092446  4.0385759921482380 16.7421482169513745
  1.7752077236642292  8.6901039879925559  3.9865073087180134
 10.0603747559494145  8.6901010034233952  3.9865076413533869
  1.7752079862112484  8.6901037740868716 10.8960671025785505
 10.0603750185372363  8.6901007895415248 10.8960674352183062
  1.7752082497118820  8.6901035605224735 17.8056268963304305
 10.0603752819567305  8.6901005759003471 17.8056272289343340
  5.0316380295453413  1.3591330539534301  6.8970312619050747
 13.3168050618930902  1.3591300693780022  6.8970315945532512
  5.0316382856317476  1.3591328398769968 13.8065910515796357
 13.3168053179483934  1.3591298553106523 13.8065913842062429
  5.0316385532754051  1.3591326243880713 20.7161508475284784
 13.3168055851252607  1.3591296398560342 20.7161511799235711
  0.8890521292338001 11.3695504004988681  0.0125064778223413
  9.1742191614652189 11.3695474159196817  0.0125068104883314
  0.8890523969659304 11.3695501863137203  6.9220662679729310
  9.1742194291950341 11.3695472017347488  6.9220666006395346
  0.8890526541511466 11.3695499710021135 13.8316260636926867
  9.1742196864899768 11.3695469864341785 13.8316263963018553
  5.0316383288874595  5.0052089604818502  3.4422498744128656
 13.3168053613766926  5.0052059759274128  3.4422502071314161
  5.0316385862048074  5.0052087451530669 10.3518096648765958
 13.3168056182502959  5.0052057605609894 10.3518099973706175
  5.0316388464553867  5.0052085300249196 17.2613694567834486
 13.3168058789982950  5.0052055454814903 17.2613697895351521
  0.8890518896329230  7.7234748300181790  3.4672851843070398
  9.1742189219974311  7.7234718454321278  3.4672855168928352
  0.8890521500788842  7.7234746153415088 10.3768449783452841
  9.1742191822939443  7.7234716307883176 10.3768453110250576
  0.8890524076849996  7.7234744010181107 17.2864047739327340
  9.1742194402201598  7.7234714164240375 17.2864051064381528
  5.7670748820088233  0.6691749291343728  0.9424668387640970
 14.0522419142837425  0.6691719441837435  0.9424671717274762
  5.7670751446706747  0.6691747152518358  7.8520266310936826
 14.0522421769726407  0.6691717307072802  7.8520269636938167
  5.7670754071035777  0.6691744951469748 14.7615864290624756
 14.0522424394174479  0.6691715105915494 14.7615867616780054
  1.6244891957262335 12.0595076878848904  5.9670700416889151
  9.9096562280434028 12.0595047033799752  5.9670703742492668
  1.6244894575187243 12.0595074774227378 12.8766298309602654
  9.9096564898177615 12.0595044928389878 12.8766301636009999
  1.6244897210722886 12.0595072624608868 19.7861896236135664
  9.9096567533400481 12.0595042779763055 19.7861899561765320
  5.7670748843652389  5.6951664636266006  4.3972462992298880
 14.0522419166693844  5.6951634789209429  4.3972466317291641
  5.7670751464594732  5.6951662529751657 11.3068060960643422
 14.0522421787533496  5.6951632686169704 11.3068064288807939
  5.7670754085803617  5.6951660400551507 18.2163658908065607
 14.0522424409072020  5.6951630552745938 18.2163662232465171
  1.6244891123939034  7.0335165742022028  2.5122898914462035
  9.9096561447121019  7.0335135896889192  2.5122902241192180
  1.6244893740976822  7.0335163575764641  9.4218496831532867
  9.9096564064068762  7.0335133729120063  9.4218500156903033
  1.6244896366479966  7.0335161388979746 16.3314094725926111
  9.9096566689364352  7.0335131544997305 16.3314098053843821
  0.3759166159994156  2.9620283357708477  3.5003648220333194
  8.6610836482764579  2.9620253512159431  3.5003651546579175
  0.3759168783674182  2.9620281211140069 10.4099246152272009
  8.6610839106825281  2.9620251365361017 10.4099249478514935
  0.3759171423565621  2.9620279054485010 17.3194844083936417
  8.6610841746500906  2.9620249208836231 17.3194847410180088
  4.5184972871077722  9.7666566881646393  3.4091714600934613
 12.8036643195077300  9.7666537036454422  3.4091717927156471
  4.5184975498564057  9.7666564734193226 10.3187312530868827
 12.8036645822032114  9.7666534888710022 10.3187315857107826
  4.5184978140061913  9.7666562594856554 17.2282910460458751
 12.8036648462394549  9.7666532748690162 17.2282913786700718
  0.3759160422645778  3.4023183863357631  0.0455851130893255
  8.6610830745780056  3.4023154017721140  0.0455854457134492
  0.3759163028763160  3.4023181705980785  6.9551449060790960
  8.6610833351983398  3.4023151860365957  6.9551452387051391
  0.3759165667989564  3.4023179563492429 13.8647046993618108
  8.6610835990524730  3.4023149717514389 13.8647050319852578
  4.5184977012919347  9.3263668883581694  6.8639515969971185
 12.8036647336446983  9.3263639037613384  6.8639519296218925
  4.5184979658578488  9.3263666724886587 13.7735113898873021
 12.8036649981091291  9.3263636879468681 13.7735117225154244
  4.5184982277224188  9.3263664578233421 20.6830711830192620
 12.8036652600692413  9.3263634732340215 20.6830715156414264
  2.6563560040248615  3.3985065623623778  4.5923320483803964
 10.9415230363390599  3.3985035778399837  4.5923323810403813
  2.6563562661388831  3.3985063457182414 11.5018918401676746
 10.9415232984449631  3.3985033611583377 11.5018921728004475
  2.6563565279702805  3.3985061279356779 18.4114516311277399
 10.9415235602813219  3.3985031433960633 18.4114519637750966
  6.7989371338377138  9.3301775278530883  2.3172056093663715
 15.0841041661177435  9.3301745434153585  2.3172059420883784
  6.7989373959348232  9.3301773147890437  9.2267654036887237
 15.0841044282294892  9.3301743302779574  9.2267657363572564
  6.7989376577230116  9.3301771029808638 16.1363251989664178
 15.0841046900395988  9.3301741183847913 16.1363255315711633
  2.6563557912976776  2.9658389124915563  1.1375510616353190
 10.9415228236038047  2.9658359279126230  1.1375513942670092
  2.6563560541658937  2.9658386947621080  8.0471108567861762
 10.9415230864667734  2.9658357102159489  8.0471111893942187
  2.6563563157789640  2.9658384845832098 14.9566706465221966
 10.9415233480999596  2.9658354999334464 14.9566709792056098
  6.7989371588027359  9.7628448508249193  5.7719845226170232
 15.0841041910974223  9.7628418662034360  5.7719848552808557
  6.7989374203526838  9.7628446312911343 12.6815443190634856
 15.0841044526747474  9.7628416468083898 12.6815446516259858
  6.7989376829320660  9.7628444180136658 19.5911041110315871
 15.0841047152234875  9.7628414333585845 19.5911044437180202
  4.2882579355025445  1.3472741796592609  3.7443002049575438
 12.5734249678659573  1.3472711950774587  3.7443005375944627
  4.2882581958077619  1.3472739652705077 10.6538599976662720
 12.5734252281275118  1.3472709806971304 10.6538603302941652
  4.2882584549285649  1.3472737510950679 17.5634197901406957
 12.5734254872657711  1.3472707665182735 17.5634201227720936
  0.1456723730712648 11.3814125281126799  3.1652369673629832
  8.4308394055189151 11.3814095435719711  3.1652372999621972
  0.1456726334957905 11.3814123128642226 10.0747967607855777
  8.4308396658679055 11.3814093283076758 10.0747970933989013
  0.1456728926356903 11.3814120973495321 16.9843565544475581
  8.4308399249221306 11.3814091127764048 16.9843568870771726
  4.2882576869025986  5.0170710798399822  0.2895189421422474
 12.5734247192167565  5.0170680952721733  0.2895192747687787
  4.2882579524279958  5.0170708656475727  7.1990787358092909
 12.5734249847129522  5.0170678810730038  7.1990790684311703
  4.2882582095738115  5.0170706497058646 14.1086385279306477
 12.5734252419632657  5.0170676651529735 14.1086388605717943
  0.1456726862560071  7.7116159029247502  6.6200158099248840
  8.4308397186166228  7.7116129183434197  6.6200161425400497
  0.1456729435862697  7.7116156891366101 13.5295756039200583
  8.4308399758008612  7.7116127045855469 13.5295759365627610
  0.1456732075015708  7.7116154739663028 20.4391353967042591
  8.4308402398995668  7.7116124893765248 20.4391357293129659
  2.6452739182885474 12.5430243248715314  2.1660768046276710
 10.9304409505945479 12.5430213402847670  2.1660771372420342
  2.6452741807715805 12.5430241100593154  9.0756365977651736
 10.9304412130756319 12.5430211254925190  9.0756369303925979
  2.6452744431567150 12.5430238960038452 15.9851963913904882
 10.9304414754619188 12.5430209114267139 15.9851967240110362
  6.7878640081147221  0.1856608790724991  4.7434588538283498
 15.0730310404202843  0.1856578944608170  4.7434591864258406
  6.7878642705421059  0.1856606639846404 11.6530186467006178
 15.0730313028482534  0.1856576793961765 11.6530189793135595
  6.7878645329310228  0.1856604483483264 18.5625784392187789
 15.0730315652432321  0.1856574638108098 18.5625787718640360
  2.6452781775851308  6.5500024437349706  5.6208575890659080
 10.9304452098898786  6.5499994591546979  5.6208579216980441
  2.6452784400972140  6.5500022280665426 12.5304173827613177
 10.9304454724037186  6.5499992435229277 12.5304177153691878
  2.6452787022971562  6.5500020131935388 19.4399771758052182
 10.9304457346009976  6.5499990286178660 19.4399775084336532
  6.7878598398788954  6.1786831128499378  1.2886792322465712
 15.0730268721870928  6.1786801282967909  1.2886795648599276
  6.7878601021797573  6.1786828972095584  8.1982390258779922
 15.0730271344839615  6.1786799126616323  8.1982393584888751
  6.7878603646329854  6.1786826834303552 15.1077988181873106
 15.0730273969392012  6.1786796988327328 15.1077991508315606
  7.8127947996470528  1.0220586853308065  1.5742444064399259
 16.0979618318446640  1.0220557007721336  1.5742447390001255
  7.8127950624950939  1.0220584704097959  8.4838041998447675
 16.0979620948076843  1.0220554858389304  8.4838045324743447
  7.8127953238716730  1.0220582556176112 15.3933639924057317
 16.0979623561846807  1.0220552710464708 15.3933643250362486
  3.6702086865413630 11.7066232339569538  5.3352913159786723
 11.9553757188471224 11.7066202493886404  5.3352916486014568
  3.6702089474540682 11.7066230189257308 12.2448511099489501
 11.9553759797634349 11.7066200343558506 12.2448514425721520
  3.6702092109644524 11.7066228043399700 19.1544109021573981
 11.9553762432262598 11.7066198197628779 19.1544112348122617
  7.8127941898485869  5.3422815800281693  5.0290253474180746
 16.0979612221898414  5.3422785954613605  5.0290256800645921
  7.8127944511264618  5.3422813650743350 11.9385851398612921
 16.0979614833740179  5.3422783804983007 11.9385854724520701
  7.8127947128683779  5.3422811501631200 18.8481449325594497
 16.0979617452327766  5.3422781655988381 18.8481452652204808
  3.6702092162172302  7.3864001448770491  1.8805124199968180
 11.9553762485459529  7.3863971603043170  1.8805127526076142
  3.6702094775795877  7.3863999301888370  8.7900722137361491
 11.9553765098798817  7.3863969456167515  8.7900725463622802
  3.6702097393316828  7.3863997153715939 15.6996320071005524
 11.9553767716642483  7.3863967308009704 15.6996323397129594
  5.5052413314736954 12.5757599433400564  1.5871603519021664
 13.7904083638187664 12.5757569589252416  1.5871606844014754
  5.5052415936901031 12.5757597281026552  8.4967201452851473
 13.7904086259938978 12.5757567435229500  8.4967204779188812
  5.5052418565440631 12.5757595154320789 15.4062799365844363
 13.7904088888477698 12.5757565308554167 15.4062802692149372
  1.3626646579015496  0.1529225114177174  5.3223764039858912
  9.6478316902134118  0.1529195268202675  5.3223767366344390
  1.3626649207277381  0.1529222947781233 12.2319361985079311
  9.6478319530330250  0.1529193102128341 12.2319365311294721
  1.3626651829532725  0.1529220799712030 19.1414959915894372
  9.6478322152704674  0.1529190953655223 19.1414963242428477
  5.5052458325654881  6.5172615926182678  5.0419402838638554
 13.7904128648585225  6.5172586081020487  5.0419406165342240
  5.5052460953316897  6.5172613760550568 11.9515000755389291
 13.7904131276593542  6.5172583913987836 11.9515004080938922
  5.5052463578967963  6.5172611604231303 18.8610598679736796
 13.7904133901800758  6.5172581759389221 18.8610602006694030
  1.3626601432544592  6.2114215287822603  1.8675959250175878
  9.6478271755543261  6.2114185441897298  1.8675962576251628
  1.3626604058399163  6.2114213146597201  8.7771557186627707
  9.6478274381548825  6.2114183301291863  8.7771560513211870
  1.3626606685394991  6.2114211014054952 15.6867155130348355
  9.6478277008301863  6.2114181167655023 15.6867158456025848
  4.0072060388838215  1.1869576156843180  6.6176659581697503
 12.2923730711713741  1.1869546311118053  6.6176662907895203
  4.0072063038542227  1.1869574011706103 13.5272257520669825
 12.2923733361561549  1.1869544165994641 13.5272260846917174
  4.0072065639954237  1.1869571860548882 20.4367855444394415
 12.2923735964905898  1.1869542015101018 20.4367858771229898
  8.1497873991196759 11.5417235966629939  0.2918729943600529
 16.4349544313951910 11.5417206120969098  0.2918733269952166
  8.1497876592101957 11.5417233821036156  7.2014327881451754
 16.4349546914844566 11.5417203975376133  7.2014331207805204
  8.1497879236797672 11.5417231669808267 14.1109925805709882
 16.4349549560003609 11.5417201824086160 14.1109929131920069
  4.0072067020809126  5.1773853779975418  3.1628834835200292
 12.2923737343097095  5.1773823934374077  3.1628838161218420
  4.0072069665243024  5.1773851628814560 10.0724432772411916
 12.2923739989384231  5.1773821782967504 10.0724436099000076
  4.0072072297579746  5.1773849479300260 16.9820030705916238
 12.2923742619653726  5.1773819633725164 16.9820034031865070
  8.1497867590576227  7.5512964882027864  3.7466507527871551
 16.4349537913883168  7.5512935036348958  3.7466510854040438
  8.1497870222620818  7.5512962734740743 10.6562105456006702
 16.4349540545306532  7.5512932888995676 10.6562108782384311
  8.1497872864659868  7.5512960588718645 17.5657703380945058
 16.4349543188689182  7.5512930743142679 17.5657706706899752
  5.7370569447570343  3.0652477631110910  5.6148156912360152
 14.0222239770641277  3.0652447785405705  5.6148160238628746
  5.7370572070235433  3.0652475477597618 12.5243754847391155
 14.0222242393275991  3.0652445631989846 12.5243758173549793
  5.7370574694704350  3.0652473332465031 19.4339352775524326
 14.0222245017739606  3.0652443486187511 19.4339356102306553
  1.5944712560112184  9.6634358350678404  1.2947221069100137
  9.8796382883187697  9.6634328505159317  1.2947224395175803
  1.5944715184672997  9.6634356199370917  8.2042819002033305
  9.8796385507725422  9.6634326353747628  8.2042822328220506
  1.5944717808071527  9.6634354057818665 15.1138416926450798
  9.8796388131143100  9.6634324212132157 15.1138420252686618
  5.7370573441688633  3.2990943217979845  2.1600344139732104
 14.0222243764778227  3.2990913372135298  2.1600347465866845
  5.7370576064779186  3.2990941075126030  9.0695942075408471
 14.0222246387819904  3.2990911229733499  9.0695945401943572
  5.7370578688169491  3.2990938929007445 15.9791540008200350
 14.0222249011239057  3.2990909083021749 15.9791543334198956
  1.5944708351119006  9.4295894708744754  4.7495008151382549
  9.8796378674204224  9.4295864863011225  4.7495011477596387
  1.5944710974814169  9.4295892556726173 11.6590606078678274
  9.8796381297862812  9.4295862710939957 11.6590609404861958
  1.5944713597678362  9.4295890404353866 18.5686204006015956
  9.8796383920779896  9.4295860558794011 18.5686207332379887
  1.2067109459596945  2.3525207582154795  3.4326691240217309
  9.4918779783473290  2.3525177736254297  3.4326694566634033
  1.2067112078114151  2.3525205425344473 10.3422289163843271
  9.4918782400975541  2.3525175579821513 10.3422292490142915
  1.2067114653790312  2.3525203285868206 17.2517887083506949
  9.4918784977218067  2.3525173440145295 17.2517890409878909
  5.3492916792563445 10.3761643061162179  3.4768669314355733
 13.6344587112987732 10.3761613214783477  3.4768672641104761
  5.3492919401776691 10.3761640915301783 10.3864267251706472
 13.6344589723675096 10.3761611069311659 10.3864270578181959
  5.3492921973294836 10.3761638756553740 17.2959865194082951
 13.6344592298226672 10.3761608911734200 17.2959868520247149
  1.2067105929932116  4.0118257746901111  6.8874493423101111
  9.4918776252516448  4.0118227901078134  6.8874496749268745
  1.2067108502813704  4.0118255598488668 13.7970091336092917
  9.4918778827365884  4.0118225753148780 13.7970094662642104
  1.2067111126869603  4.0118253439422054 20.7065689273839304
  9.4918781449766563  4.0118223593557598 20.7065692600142661
  5.3492918869170332  8.7168594096217848  0.0220874990652887
 13.6344589191020855  8.7168564250675402  0.0220878317230619
  5.3492921543356919  8.7168591938704960  6.9316472909371454
 13.6344591865127516  8.7168562093409196  6.9316476235816884
  5.3492924100636987  8.7168589798895830 13.8412070857820346
 13.6344594425253316  8.7168559952846092 13.8412074183752338
  1.1635137071932484  1.2321756461270295  2.6424326077410170
  9.4486807394997392  1.2321726615604691  2.6424329403704512
  1.1635139698622874  1.2321754310733988  9.5519924007814385
  9.4486810021656229  1.2321724465039818  9.5519927334067383
  1.1635142325809535  1.2321752159171127 16.4615521937760576
  9.4486812648838221  1.2321722313499910 16.4615525264020910
  5.3060944727298001 11.4965098581386460  4.2671028789631382
 13.5912615050564565 11.4965068735849147  4.2671032115913823
  5.3060947351767052 11.4965096434713807 11.1766626721274669
 13.5912617674942542 11.4965066589086575 11.1766630047537596
  5.3060949981400798 11.4965094290041332 18.0862224652110157
 13.5912620304348195 11.4965064444304357 18.0862227978397812
  1.1635131538998578  5.1321712028618585  6.0972133968407363
  9.4486801862042675  5.1321682182928541  6.0972137294648361
  1.1635134168474832  5.1321709885087499 13.0067731897894134
  9.4486804491455523  5.1321680039307083 13.0067735224177898
  1.1635136789015703  5.1321707734660063 19.9163329829003004
  9.4486807112017797  5.1321677888939456 19.9163333155245041
  5.3060949827176049  7.5965142891627995  0.8123239402115927
 13.5912620150392094  7.5965113045811554  0.8123242728385991
  5.3060952444647258  7.5965140746933404  7.7218837332713637
 13.5912622767775790  7.5965110901180708  7.7218840658974557
  5.3060955074815137  7.5965138593268682 14.6314435264471552
 13.5912625397795139  7.5965108747653289 14.6314438590700355
  7.0102683035973703  1.2239126954319663  0.9615979934422249
 15.2954353362097280  1.2239097108993882  0.9615983261767073
  7.0102685647005707  1.2239124805773240  7.8711577859236037
 15.2954355969885736  1.2239094960046344  7.8711581185431072
  7.0102688300409941  1.2239122664601478 14.7807175797134729
 15.2954358623279489  1.2239092818897466 14.7807179123303332
  2.8676823186189884 11.5047692074113943  5.9479380113985885
 11.1528493509351296 11.5047662228290193  5.9479383440318676
  2.8676825849610874 11.5047689922231040 12.8574978029042519
 11.1528496172576119 11.5047660076538456 12.8574981355337261
  2.8676828445762044 11.5047687769807894 19.7670575976866978
 11.1528498770004560 11.5047657924080884 19.7670579302581366
  7.0102678434270391  5.1404276878048023  4.4163786071284612
 15.2954348756341005  5.1404247032486330  4.4163789397207314
  7.0102681089449677  5.1404274725076649 11.3259384012614941
 15.2954351414152558  5.1404244879161247 11.3259387339444615
  7.0102683729059931  5.1404272574884713 18.2354981949357366
 15.2954354050461685  5.1404242729402814 18.2354985275039638
  2.8676826048691750  7.5882541966627484  2.4931588543055145
 11.1528496371168160  7.5882512120857575  2.4931591869529477
  2.8676828697147343  7.5882539818403885  9.4027186461940371
 11.1528499020480680  7.5882509972886423  9.4027189788245895
  2.8676831340478741  7.5882537675376778 16.3122784388580904
 11.1528501662680437  7.5882507829427039 16.3122787715000861
  7.1257161662105384  2.2490758612732367  0.0599851088844873
 15.4108831984945418  2.2490728767067401  0.0599854414942617
  7.1257164285796000  2.2490756463318067  6.9695449020348921
 15.4108834608887637  2.2490726617590355  6.9695452346640838
  7.1257166906115978  2.2490754316707173 13.8791046948070651
 15.4108837229130327  2.2490724471042776 13.8791050274283094
  2.9831303645850080 10.4796064452370246  6.8495512580373754
 11.2682973968938676 10.4796034606647677  6.8495515906627409
  2.9831306267123829 10.4796062302437374 13.7591110513409305
 11.2682976590208863 10.4796032456768700 13.7591113839627717
  2.9831308890857389 10.4796060154072155 20.6686708443890552
 11.2682979213923620 10.4796030308340775 20.6686711770177993
  7.1257160387064813  4.1152647596948011  3.5147653741083338
 15.4108830710254612  4.1152617751268545  3.5147657067431797
  7.1257163007730560  4.1152645447913425 10.4243251669767947
 15.4108833330642003  4.1152615602186930 10.4243254995924470
  7.1257165630251578  4.1152643298283733 17.3338849599102467
 15.4108835953413141  4.1152613452616968 17.3338852925449309
  2.9831304391934741  8.6134173343750842  3.3947718390328934
 11.2682974715156945  8.6134143498038220  3.3947721716486461
  2.9831307014003765  8.6134171195963436 10.3043316322350851
 11.2682977337081756  8.6134141350289095 10.3043319648617135
  2.9831309635753134  8.6134169048780258 17.2138914254871089
 11.2682979958916540  8.6134139203020901 17.2138917581032800
