 C  H 
        1.0000000000
  17.120006259990557   0.000000000000000   0.199345354323078
   0.000000000000000  12.056953746922714   0.000000000000000
 -12.828973842657538   0.000000000000000  18.114950650925813
  224  160
 Direct
   0.045238308072539   0.015873253963722   0.185526133167383
   0.545238308072539   0.015873253963722   0.185526133167383
   0.045238308072539   0.515873253963722   0.185526133167383
   0.545238308072539   0.515873253963722   0.185526133167383
   0.045238308072539   0.015873253963722   0.685526133167383
   0.545238308072539   0.015873253963722   0.685526133167383
   0.045238308072539   0.515873253963722   0.685526133167383
   0.545238308072539   0.515873253963722   0.685526133167383
   0.059786952066510   0.079630839439276   0.141372795143500
   0.559786952066510   0.079630839439276   0.141372795143500
   0.059786952066510   0.579630839439276   0.141372795143500
   0.559786952066510   0.579630839439276   0.141372795143500
   0.059786952066510   0.079630839439276   0.641372795143500
   0.559786952066510   0.079630839439276   0.641372795143500
   0.059786952066510   0.579630839439276   0.641372795143500
   0.559786952066510   0.579630839439276   0.641372795143500
   0.030037481235727   0.041837417531734   0.070147057463346
   0.530037481235727   0.041837417531734   0.070147057463346
   0.030037481235727   0.541837417531734   0.070147057463346
   0.530037481235727   0.541837417531734   0.070147057463346
   0.030037481235727   0.041837417531734   0.570147057463346
   0.530037481235727   0.041837417531734   0.570147057463346
   0.030037481235727   0.541837417531734   0.570147057463346
   0.530037481235727   0.541837417531734   0.570147057463346
   0.043253703338280   0.105314370422830   0.023567847755458
   0.543253703338280   0.105314370422830   0.023567847755458
   0.043253703338280   0.605314370422830   0.023567847755458
   0.543253703338280   0.605314370422830   0.023567847755458
   0.043253703338280   0.105314370422830   0.523567847755458
   0.543253703338280   0.105314370422830   0.523567847755458
   0.043253703338280   0.605314370422830   0.523567847755458
   0.543253703338280   0.605314370422830   0.523567847755458
   0.485384760657312   0.433634098841494   0.045817776165841
   0.985384760657312   0.433634098841494   0.045817776165841
   0.485384760657312   0.933634098841494   0.045817776165841
   0.985384760657312   0.933634098841494   0.045817776165841
   0.485384760657312   0.433634098841494   0.545817776165841
   0.985384760657312   0.433634098841494   0.545817776165841
   0.485384760657312   0.933634098841494   0.545817776165841
   0.985384760657312   0.933634098841494   0.545817776165841
   0.471811286986313   0.370056073093225   0.093603316157423
   0.971811286986313   0.370056073093225   0.093603316157423
   0.471811286986313   0.870056073093225   0.093603316157423
   0.971811286986313   0.870056073093225   0.093603316157423
   0.471811286986313   0.370056073093225   0.593603316157423
   0.971811286986313   0.370056073093225   0.593603316157423
   0.471811286986313   0.870056073093225   0.593603316157423
   0.971811286986313   0.870056073093225   0.593603316157423
   0.500303836398351   0.409994215441482   0.161198499125449
   1.000303836398351   0.409994215441482   0.161198499125449
   0.500303836398351   0.909994215441482   0.161198499125449
   1.000303836398351   0.909994215441482   0.161198499125449
   0.500303836398351   0.409994215441482   0.661198499125449
   1.000303836398351   0.409994215441482   0.661198499125449
   0.500303836398351   0.909994215441482   0.661198499125449
   1.000303836398351   0.909994215441482   0.661198499125449
   0.014615235006152   0.066365897923611   0.454182224236894
   0.514615235006152   0.066365897923611   0.454182224236894
   0.014615235006152   0.566365897923611   0.454182224236894
   0.514615235006152   0.566365897923611   0.454182224236894
   0.014615235006152   0.066365897923611   0.954182224236894
   0.514615235006152   0.066365897923611   0.954182224236894
   0.014615235006152   0.566365897923611   0.954182224236894
   0.514615235006152   0.566365897923611   0.954182224236894
   0.456746285054378   0.394685639317472   0.476432152046153
   0.956746285054378   0.394685639317472   0.476432152046153
   0.456746285054378   0.894685639317472   0.476432152046153
   0.956746285054378   0.894685639317472   0.476432152046153
   0.456746285054378   0.394685639317472   0.976432152046153
   0.956746285054378   0.394685639317472   0.976432152046153
   0.456746285054378   0.894685639317472   0.976432152046153
   0.956746285054378   0.894685639317472   0.976432152046153
   0.469962528047088   0.458162588436305   0.429852944919639
   0.969962528047088   0.458162588436305   0.429852944919639
   0.469962528047088   0.958162588436305   0.429852944919639
   0.969962528047088   0.958162588436305   0.429852944919639
   0.469962528047088   0.458162588436305   0.929852944919639
   0.969962528047088   0.458162588436305   0.929852944919639
   0.469962528047088   0.958162588436305   0.929852944919639
   0.969962528047088   0.958162588436305   0.929852944919639
   0.028188716895358   0.129943924521211   0.406396687599061
   0.528188716895358   0.129943924521211   0.406396687599061
   0.028188716895358   0.629943924521211   0.406396687599061
   0.528188716895358   0.629943924521211   0.406396687599061
   0.028188716895358   0.129943924521211   0.906396687599061
   0.528188716895358   0.129943924521211   0.906396687599061
   0.028188716895358   0.629943924521211   0.906396687599061
   0.528188716895358   0.629943924521211   0.906396687599061
   0.440213057394398   0.420369147910531   0.358627202069468
   0.940213057394398   0.420369147910531   0.358627202069468
   0.440213057394398   0.920369147910531   0.358627202069468
   0.940213057394398   0.920369147910531   0.358627202069468
   0.440213057394398   0.420369147910531   0.858627202069468
   0.940213057394398   0.420369147910531   0.858627202069468
   0.440213057394398   0.920369147910531   0.858627202069468
   0.940213057394398   0.920369147910531   0.858627202069468
  -0.000303824798045   0.090005783124353   0.338801506305897
   0.499696175201955   0.090005783124353   0.338801506305897
  -0.000303824798045   0.590005783124353   0.338801506305897
   0.499696175201955   0.590005783124353   0.338801506305897
  -0.000303824798045   0.090005783124353   0.838801506305897
   0.499696175201955   0.090005783124353   0.838801506305897
  -0.000303824798045   0.590005783124353   0.838801506305897
   0.499696175201955   0.590005783124353   0.838801506305897
   0.454761670192664   0.484126765626037   0.314473861614379
   0.954761670192664   0.484126765626037   0.314473861614379
   0.454761670192664   0.984126765626037   0.314473861614379
   0.954761670192664   0.984126765626037   0.314473861614379
   0.454761670192664   0.484126765626037   0.814473861614379
   0.954761670192664   0.484126765626037   0.814473861614379
   0.454761670192664   0.984126765626037   0.814473861614379
   0.954761670192664   0.984126765626037   0.814473861614379
   0.204761691290809   0.265873245107461   0.314473867188260
   0.704761691290809   0.265873245107461   0.314473867188260
   0.204761691290809   0.765873245107461   0.314473867188260
   0.704761691290809   0.765873245107461   0.314473867188260
   0.204761691290809   0.265873245107461   0.814473867188260
   0.704761691290809   0.265873245107461   0.814473867188260
   0.204761691290809   0.765873245107461   0.814473867188260
   0.704761691290809   0.765873245107461   0.814473867188260
   0.295238325361670   0.234126767376271   0.185526134164479
   0.795238325361670   0.234126767376271   0.185526134164479
   0.295238325361670   0.734126767376271   0.185526134164479
   0.795238325361670   0.734126767376271   0.185526134164479
   0.295238325361670   0.234126767376271   0.685526134164479
   0.795238325361670   0.234126767376271   0.685526134164479
   0.295238325361670   0.734126767376271   0.685526134164479
   0.795238325361670   0.734126767376271   0.685526134164479
   0.190213050571844   0.329630843770491   0.358627204225282
   0.690213050571844   0.329630843770491   0.358627204225282
   0.190213050571844   0.829630843770491   0.358627204225282
   0.690213050571844   0.829630843770491   0.358627204225282
   0.190213050571844   0.329630843770491   0.858627204225282
   0.690213050571844   0.329630843770491   0.858627204225282
   0.190213050571844   0.829630843770491   0.858627204225282
   0.690213050571844   0.829630843770491   0.858627204225282
   0.309786933521818   0.170369153165522   0.141372790446258
   0.809786933521818   0.170369153165522   0.141372790446258
   0.309786933521818   0.670369153165522   0.141372790446258
   0.809786933521818   0.670369153165522   0.141372790446258
   0.309786933521818   0.170369153165522   0.641372790446258
   0.809786933521818   0.170369153165522   0.641372790446258
   0.309786933521818   0.670369153165522   0.641372790446258
   0.809786933521818   0.670369153165522   0.641372790446258
   0.219962521171120   0.291837406750583   0.429852943426470
   0.719962521171120   0.291837406750583   0.429852943426470
   0.219962521171120   0.791837406750583   0.429852943426470
   0.719962521171120   0.791837406750583   0.429852943426470
   0.219962521171120   0.291837406750583   0.929852943426470
   0.719962521171120   0.291837406750583   0.929852943426470
   0.219962521171120   0.791837406750583   0.929852943426470
   0.719962521171120   0.791837406750583   0.929852943426470
   0.280037484642670   0.208162595946622   0.070147056495170
   0.780037484642670   0.208162595946622   0.070147056495170
   0.280037484642670   0.708162595946622   0.070147056495170
   0.780037484642670   0.708162595946622   0.070147056495170
   0.280037484642670   0.208162595946622   0.570147056495170
   0.780037484642670   0.208162595946622   0.570147056495170
   0.280037484642670   0.708162595946622   0.570147056495170
   0.780037484642670   0.708162595946622   0.570147056495170
   0.206746298823537   0.355314368652602   0.476432151241225
   0.706746298823537   0.355314368652602   0.476432151241225
   0.206746298823537   0.855314368652602   0.476432151241225
   0.706746298823537   0.855314368652602   0.476432151241225
   0.206746298823537   0.355314368652602   0.976432151241225
   0.706746298823537   0.355314368652602   0.976432151241225
   0.206746298823537   0.855314368652602   0.976432151241225
   0.706746298823537   0.855314368652602   0.976432151241225
   0.293253712348876   0.144685638267615   0.023567851361429
   0.793253712348877   0.144685638267615   0.023567851361429
   0.293253712348876   0.644685638267615   0.023567851361429
   0.793253712348877   0.644685638267615   0.023567851361429
   0.293253712348876   0.144685638267615   0.523567851361429
   0.793253712348877   0.144685638267615   0.523567851361429
   0.293253712348876   0.644685638267615   0.523567851361429
   0.793253712348877   0.644685638267615   0.523567851361429
   0.264615247081644   0.183634098589633   0.454182232239644
   0.764615247081644   0.183634098589633   0.454182232239644
   0.264615247081644   0.683634098589633   0.454182232239644
   0.764615247081644   0.683634098589633   0.454182232239644
   0.264615247081644   0.183634098589633   0.954182232239644
   0.764615247081644   0.183634098589633   0.954182232239644
   0.264615247081644   0.683634098589633   0.954182232239644
   0.764615247081644   0.683634098589633   0.954182232239644
   0.235384748425151   0.316365896765084   0.045817765013816
   0.735384748425151   0.316365896765084   0.045817765013816
   0.235384748425151   0.816365896765084   0.045817765013816
   0.735384748425151   0.816365896765084   0.045817765013816
   0.235384748425151   0.316365896765084   0.545817765013817
   0.735384748425151   0.316365896765084   0.545817765013817
   0.235384748425151   0.816365896765084   0.545817765013817
   0.735384748425151   0.816365896765084   0.545817765013817
   0.278188717965862   0.120056073623282   0.406396691428767
   0.778188717965862   0.120056073623282   0.406396691428767
   0.278188717965862   0.620056073623282   0.406396691428767
   0.778188717965862   0.620056073623282   0.406396691428767
   0.278188717965862   0.120056073623282   0.906396691428767
   0.778188717965862   0.120056073623282   0.906396691428767
   0.278188717965862   0.620056073623282   0.906396691428767
   0.778188717965862   0.620056073623282   0.906396691428767
   0.221811282488566   0.379943934123114   0.093603307977598
   0.721811282488566   0.379943934123114   0.093603307977598
   0.221811282488566   0.879943934123114   0.093603307977598
   0.721811282488566   0.879943934123114   0.093603307977598
   0.221811282488566   0.379943934123114   0.593603307977598
   0.721811282488566   0.379943934123114   0.593603307977598
   0.221811282488566   0.879943934123114   0.593603307977598
   0.721811282488566   0.879943934123114   0.593603307977598
   0.249696176597214   0.159994209303162   0.338801507049909
   0.749696176597214   0.159994209303162   0.338801507049909
   0.249696176597214   0.659994209303162   0.338801507049909
   0.749696176597214   0.659994209303162   0.338801507049909
   0.249696176597214   0.159994209303162   0.838801507049909
   0.749696176597214   0.159994209303162   0.838801507049909
   0.249696176597214   0.659994209303162   0.838801507049909
   0.749696176597214   0.659994209303162   0.838801507049909
   0.250303816915969   0.340005782411498   0.161198486472274
   0.750303816915969   0.340005782411498   0.161198486472274
   0.250303816915969   0.840005782411498   0.161198486472274
   0.750303816915969   0.840005782411498   0.161198486472274
   0.250303816915969   0.340005782411498   0.661198486472274
   0.750303816915969   0.340005782411498   0.661198486472274
   0.250303816915969   0.840005782411498   0.661198486472274
   0.750303816915969   0.840005782411498   0.661198486472274
   0.068331783047129   0.045840908760081   0.239284576346442
   0.568331783047129   0.045840908760081   0.239284576346442
   0.068331783047129   0.545840908760081   0.239284576346442
   0.568331783047129   0.545840908760081   0.239284576346442
   0.068331783047129   0.045840908760081   0.739284576346442
   0.568331783047129   0.045840908760081   0.739284576346442
   0.068331783047129   0.545840908760081   0.739284576346442
   0.568331783047129   0.545840908760081   0.739284576346442
   0.093701329392177   0.160145372248824   0.159623737083756
   0.593701329392177   0.160145372248824   0.159623737083756
   0.093701329392177   0.660145372248824   0.159623737083756
   0.593701329392177   0.660145372248824   0.159623737083756
   0.093701329392177   0.160145372248824   0.659623737083756
   0.593701329392177   0.160145372248824   0.659623737083756
   0.093701329392177   0.660145372248824   0.659623737083756
   0.593701329392177   0.660145372248824   0.659623737083756
   0.076959980028804   0.186044034542480   0.041781862358454
   0.576959980028804   0.186044034542480   0.041781862358454
   0.076959980028804   0.686044034542480   0.041781862358454
   0.576959980028804   0.686044034542480   0.041781862358454
   0.076959980028804   0.186044034542480   0.541781862358454
   0.576959980028804   0.186044034542480   0.541781862358454
   0.076959980028804   0.686044034542480   0.541781862358454
   0.576959980028804   0.686044034542480   0.541781862358454
   0.438477223294260   0.289396044376213   0.075431315455897
   0.938477223294260   0.289396044376213   0.075431315455897
   0.438477223294260   0.789396044376213   0.075431315455897
   0.938477223294260   0.789396044376213   0.075431315455897
   0.438477223294260   0.289396044376213   0.575431315455897
   0.938477223294260   0.289396044376213   0.575431315455897
   0.438477223294260   0.789396044376213   0.575431315455897
   0.938477223294260   0.789396044376213   0.575431315455897
   0.489200898824034   0.360582030935817   0.196568963144532
   0.989200898824034   0.360582030935817   0.196568963144532
   0.489200898824034   0.860582030935817   0.196568963144532
   0.989200898824034   0.860582030935817   0.196568963144532
   0.489200898824034   0.360582030935817   0.696568963144532
   0.989200898824034   0.360582030935817   0.696568963144532
   0.489200898824034   0.860582030935817   0.696568963144532
   0.989200898824034   0.860582030935817   0.696568963144532
   0.423040020842904   0.313955966950302   0.458218138234800
   0.923040020842904   0.313955966950302   0.458218138234800
   0.423040020842904   0.813955966950302   0.458218138234800
   0.923040020842904   0.813955966950302   0.458218138234800
   0.423040020842904   0.313955966950302   0.958218138234800
   0.923040020842904   0.313955966950302   0.958218138234800
   0.423040020842904   0.813955966950302   0.958218138234800
   0.923040020842904   0.813955966950302   0.958218138234800
   0.061522776790155   0.210603957524878   0.424568683694472
   0.561522776790154   0.210603957524878   0.424568683694472
   0.061522776790155   0.710603957524878   0.424568683694472
   0.561522776790154   0.710603957524878   0.424568683694472
   0.061522776790155   0.210603957524878   0.924568683694472
   0.561522776790154   0.210603957524878   0.924568683694472
   0.061522776790155   0.710603957524878   0.924568683694472
   0.561522776790154   0.710603957524878   0.924568683694472
   0.406298668237271   0.339854632923617   0.340376262810841
   0.906298668237271   0.339854632923617   0.340376262810841
   0.406298668237271   0.839854632923617   0.340376262810841
   0.906298668237271   0.839854632923617   0.340376262810841
   0.406298668237271   0.339854632923617   0.840376262810841
   0.906298668237271   0.339854632923617   0.840376262810841
   0.406298668237271   0.839854632923617   0.840376262810841
   0.906298668237271   0.839854632923617   0.840376262810841
   0.010799103498142   0.139417970834612   0.303431036044558
   0.510799103498142   0.139417970834612   0.303431036044558
   0.010799103498142   0.639417970834611   0.303431036044558
   0.510799103498142   0.639417970834611   0.303431036044558
   0.010799103498142   0.139417970834612   0.803431036044558
   0.510799103498142   0.139417970834612   0.803431036044558
   0.010799103498142   0.639417970834611   0.803431036044558
   0.510799103498142   0.639417970834611   0.803431036044558
   0.431668224330875   0.454159085945357   0.260715426149075
   0.931668224330875   0.454159085945357   0.260715426149075
   0.431668224330875   0.954159085945357   0.260715426149075
   0.931668224330875   0.954159085945357   0.260715426149075
   0.431668224330875   0.454159085945357   0.760715426149075
   0.931668224330875   0.454159085945357   0.760715426149075
   0.431668224330875   0.954159085945357   0.760715426149075
   0.931668224330875   0.954159085945357   0.760715426149075
   0.181668221396135   0.295840898347463   0.260715422194886
   0.681668221396135   0.295840898347463   0.260715422194886
   0.181668221396135   0.795840898347463   0.260715422194886
   0.681668221396135   0.795840898347463   0.260715422194886
   0.181668221396135   0.295840898347463   0.760715422194886
   0.681668221396135   0.295840898347463   0.760715422194886
   0.181668221396135   0.795840898347463   0.760715422194886
   0.681668221396135   0.795840898347463   0.760715422194886
   0.318331771682484   0.204159095904724   0.239284576323681
   0.818331771682484   0.204159095904724   0.239284576323681
   0.318331771682484   0.704159095904724   0.239284576323681
   0.818331771682484   0.704159095904724   0.239284576323681
   0.318331771682484   0.204159095904724   0.739284576323681
   0.818331771682484   0.204159095904724   0.739284576323681
   0.318331771682484   0.704159095904724   0.739284576323681
   0.818331771682484   0.704159095904724   0.739284576323681
   0.156298665692627   0.410145361134601   0.340376256808944
   0.656298665692627   0.410145361134601   0.340376256808944
   0.156298665692627   0.910145361134601   0.340376256808944
   0.656298665692627   0.910145361134601   0.340376256808944
   0.156298665692627   0.410145361134601   0.840376256808944
   0.656298665692627   0.410145361134601   0.840376256808944
   0.156298665692627   0.910145361134601   0.840376256808944
   0.656298665692627   0.910145361134601   0.840376256808944
   0.343701334435945   0.089854641555600   0.159623742039973
   0.843701334435945   0.089854641555600   0.159623742039973
   0.343701334435945   0.589854641555600   0.159623742039973
   0.843701334435945   0.589854641555600   0.159623742039973
   0.343701334435945   0.089854641555600   0.659623742039973
   0.843701334435945   0.089854641555600   0.659623742039973
   0.343701334435945   0.589854641555600   0.659623742039973
   0.843701334435945   0.589854641555600   0.659623742039973
   0.173040017310456   0.436044030648345   0.458218133881169
   0.673040017310456   0.436044030648345   0.458218133881169
   0.173040017310456   0.936044030648345   0.458218133881169
   0.673040017310456   0.936044030648345   0.458218133881169
   0.173040017310456   0.436044030648345   0.958218133881169
   0.673040017310456   0.436044030648345   0.958218133881169
   0.173040017310456   0.936044030648345   0.958218133881169
   0.673040017310456   0.936044030648345   0.958218133881169
   0.326959983669089   0.063955971274717   0.041781864970420
   0.826959983669089   0.063955971274717   0.041781864970420
   0.326959983669089   0.563955971274718   0.041781864970420
   0.826959983669089   0.563955971274718   0.041781864970420
   0.326959983669089   0.063955971274717   0.541781864970420
   0.826959983669089   0.063955971274717   0.541781864970420
   0.326959983669089   0.563955971274718   0.541781864970420
   0.826959983669089   0.563955971274718   0.541781864970420
   0.311522784415330   0.039396040829307   0.424568690030718
   0.811522784415330   0.039396040829307   0.424568690030718
   0.311522784415330   0.539396040829307   0.424568690030718
   0.811522784415330   0.539396040829307   0.424568690030718
   0.311522784415330   0.039396040829307   0.924568690030718
   0.811522784415330   0.039396040829307   0.924568690030718
   0.311522784415330   0.539396040829307   0.924568690030718
   0.811522784415330   0.539396040829307   0.924568690030718
   0.188477215369139   0.460603958639291   0.075431308198931
   0.688477215369139   0.460603958639291   0.075431308198931
   0.188477215369139   0.960603958639291   0.075431308198931
   0.688477215369139   0.960603958639291   0.075431308198931
   0.188477215369139   0.460603958639291   0.575431308198931
   0.688477215369139   0.460603958639291   0.575431308198931
   0.188477215369139   0.960603958639291   0.575431308198931
   0.688477215369139   0.960603958639291   0.575431308198931
   0.260799112069596   0.110582018315574   0.303431037605535
   0.760799112069596   0.110582018315574   0.303431037605535
   0.260799112069596   0.610582018315574   0.303431037605535
   0.760799112069596   0.610582018315574   0.303431037605535
   0.260799112069596   0.110582018315574   0.803431037605534
   0.760799112069596   0.110582018315574   0.803431037605534
   0.260799112069596   0.610582018315574   0.803431037605534
   0.760799112069596   0.610582018315574   0.803431037605534
   0.239200882939086   0.389417981764675   0.196568959077067
   0.739200882939086   0.389417981764675   0.196568959077067
   0.239200882939086   0.889417981764675   0.196568959077067
   0.739200882939086   0.889417981764675   0.196568959077067
   0.239200882939086   0.389417981764675   0.696568959077067
   0.739200882939086   0.389417981764675   0.696568959077067
   0.239200882939086   0.889417981764675   0.696568959077067
   0.739200882939086   0.889417981764675   0.696568959077067
