 C  H  O 
 1.0000000000000000
    13.1738983378942862    0.0000000000000000    0.0000000000000000
     0.0000000000000000   15.7280206192570056    0.0000000000000000
     0.0000000000000000    0.0000000000000000   12.4273295894800846
 C   H   O  
  64  64 128
Cartesian
  0.3826981629329169  0.4388232026310780  5.7008039182197221
  6.9696473318549979  0.4388232026100005  5.7008039182551418
  0.3826981629099150  8.3028335122737751  5.7008039182486749
  6.9696473320803705  8.3028335121020351  5.7008039179517613
  0.3826981628376566  0.4388232026984939 11.9144687130928659
  6.9696473317010170  0.4388232027569760 11.9144687132007121
  0.3826981628632639  8.3028335122980010 11.9144687130563884
  6.9696473318546968  8.3028335123069859 11.9144687129954505
  6.2042509692752272  7.4251871125791133  0.5128609271525481
 12.7912001385107033  7.4251871123714848  0.5128609267643054
  6.2042509696076742 15.2891974219787965  0.5128609266971991
 12.7912001385239478 15.2891974220037827  0.5128609267452495
  6.2042509697634323  7.4251871122227593  6.7265257212323810
 12.7912001385116341  7.4251871123789561  6.7265257214988887
  6.2042509698304817 15.2891974218128208  6.7265257211398639
 12.7912001384928171 15.2891974220094298  6.7265257215235481
  2.9107761309209277  0.4388230909784097  2.5939715479122158
  9.4977252999439781  0.4388230910399176  2.5939715480161998
  2.9107761310796718  8.3028334007149329  2.5939715481263041
  9.4977253000297104  8.3028334007271862  2.5939715481361820
  2.9107761310906608  0.4388230910966343  8.8076363428867470
  9.4977252999425765  0.4388230910309038  8.8076363427533408
  2.9107761311169340  8.3028334007398747  8.8076363429227502
  9.4977252998296287  8.3028334005630153  8.8076363426000537
  3.6761727867846430  3.4931819735235727  5.7008038057895600
 10.2631219560058202  3.4931819736769358  5.7008038054230346
  3.6761727868864047 11.3571922832146637  5.7008038056509358
 10.2631219557928279 11.3571922831598826  5.7008038057080919
  3.6761727867577023  3.4931819734759082 11.9144686005725404
 10.2631219556640687  3.4931819734712097 11.9144686006270053
  3.6761727870442309 11.3571922833298551 11.9144686001841524
 10.2631219556525686 11.3571922831028829 11.9144686006426976
  6.2042506681604692  3.4931820459814662  2.5939715721921250
 12.7911998371089197  3.4931820459819924  2.5939715721968417
  6.2042506681041933 11.3571923555940018  2.5939715721187731
 12.7911998372660243 11.3571923554900387  2.5939715724078196
  6.2042506685901211  3.4931820457060101  8.8076363675120142
 12.7911998372838625  3.4931820458605074  8.8076363671717992
  6.2042506684597365 11.3571923554344512  8.8076363673416758
 12.7911998372426492 11.3571923555321312  8.8076363671126714
  3.6761730269207162  7.4251872100477625  3.6196932301554248
 10.2631221959588821  7.4251872101087493  3.6196932302867348
  3.6761730270420001 15.2891975197482299  3.6196932303259861
 10.2631221959767451 15.2891975197458763  3.6196932303079756
  3.6761730268093644  7.4251872099803560  9.8333580247521652
 10.2631221957174308  7.4251872099229042  9.8333580246943555
  3.6761730270599742 15.2891975197668284  9.8333580250934816
 10.2631221958046943 15.2891975196241994  9.8333580248119450
  2.9107763627263141  4.3708283054625188  0.5128610139948567
  9.4977255316747691  4.3708283054448014  0.5128610139958820
  2.9107763626568262 12.2348386150758461  0.5128610140903977
  9.4977255317345577 12.2348386151299806  0.5128610139107767
  2.9107763628751235  4.3708283055775423  6.7265258085283000
  9.4977255314222617  4.3708283053352597  6.7265258090742970
  2.9107763626615308 12.2348386150506485  6.7265258088183213
  9.4977255315531917 12.2348386150252235  6.7265258088919460
  0.3826985512587806  4.3708282280915753  3.6196932890122664
  6.9696477201761402  4.3708282281454203  3.6196932889709506
  0.3826985512630445 12.2348385376995026  3.6196932890163747
  6.9696477204688421 12.2348385375406821  3.6196932893691183
  0.3826985512085794  4.3708282281085280  9.8333580836834074
  6.9696477200785987  4.3708282281310087  9.8333580835723442
  0.3826985511365366 12.2348385377878159  9.8333580835833825
  6.9696477200465763 12.2348385377897682  9.8333580835367442
  0.6350188722313840  2.3176324017301062  5.2814874516278287
  7.2219680411681821  2.3176324017188272  5.2814874516453223
  0.6350188722306762 10.1816427113593431  5.2814874516279335
  7.2219680411957379 10.1816427113812722  5.2814874516029073
  0.6350188722249869  2.3176324017219887 11.4951522463795559
  7.2219680411648861  2.3176324017171703 11.4951522463865370
  0.6350188722213278 10.1816427113450398 11.4951522463828244
  7.2219680411769920 10.1816427113535806 11.4951522463681961
  5.9519303128283214  5.5463779282144641  0.9321773192908606
 12.5388794817899587  5.5463779282220740  0.9321773192689411
  5.9519303128460654 13.4103882378553028  0.9321773192574179
 12.5388794817992402 13.4103882378669326  0.9321773192527871
  5.9519303128678880  5.5463779282619949  7.1458421139681905
 12.5388794817989879  5.5463779282403358  7.1458421139927877
  5.9519303128696839 13.4103882378817900  7.1458421139682109
 12.5388794817942006 13.4103882378602695  7.1458421140030586
  2.6584557053379880  2.3176323757702351  2.1746550883671913
  9.2454048742882655  2.3176323757704971  2.1746550883706011
  2.6584557053464386 10.1816426853936459  2.1746550883848266
  9.2454048742980284 10.1816426853845705  2.1746550883893709
  2.6584557053520816  2.3176323757484667  8.3883198831346846
  9.2454048742773693  2.3176323757852733  8.3883198831018486
  2.6584557053499096 10.1816426853919797  8.3883198831288688
  9.2454048742826380 10.1816426854048050  8.3883198831058188
  3.9284934866240175  1.6143727795766512  5.2814874916254810
 10.5154426555911904  1.6143727795659295  5.2814874915964110
  3.9284934866253645  9.4783830892096557  5.2814874916206476
 10.5154426555771217  9.4783830892014969  5.2814874916149854
  3.9284934866297290  1.6143727795727032 11.4951522863602911
 10.5154426555627776  1.6143727795953553 11.4951522863839948
  3.9284934866312820  9.4783830892155123 11.4951522863591666
 10.5154426555562530  9.4783830892326257 11.4951522863947293
  5.9519302894355297  1.6143727588574377  2.1746551866623136
 12.5388794583824197  1.6143727588580530  2.1746551866637787
  5.9519302894117896  9.4783830684545460  2.1746551866274593
 12.5388794583895393  9.4783830684918939  2.1746551866757757
  5.9519302894730712  1.6143727588977785  8.3883199814635319
 12.5388794583909320  1.6143727588620345  8.3883199814164868
  5.9519302894654356  9.4783830685196815  8.3883199814537779
 12.5388794583932768  9.4783830684925920  8.3883199814177658
  3.9284934603914596  5.5463779380659579  4.0390097006279158
 10.5154426293552845  5.5463779380416689  4.0390097006519454
  3.9284934604018393 13.4103882476816878  4.0390097006463295
 10.5154426293465360 13.4103882476851162  4.0390097006407846
  3.9284934603848818  5.5463779380696208 10.2526744953593631
 10.5154426293317513  5.5463779380725038 10.2526744953577058
  3.9284934604107442 13.4103882476663152 10.2526744953990612
 10.5154426293322363 13.4103882477038177 10.2526744953571374
  2.6584556762588742  6.2496375380634186  0.9321773131352151
  9.2454048452097499  6.2496375380591402  0.9321773131301954
  2.6584556762426041 14.1136478477092187  0.9321773131585400
  9.2454048452055293 14.1136478476951783  0.9321773131339760
  2.6584556762637814  6.2496375380564002  7.1458421078641079
  9.2454048451723398  6.2496375380968825  7.1458421079244792
  2.6584556762514122 14.1136478476919542  7.1458421078799503
  9.2454048451896025 14.1136478477052165  7.1458421078951533
  0.6350188764412927  6.2496375441209899  4.0390096024143407
  7.2219680454007573  6.2496375441467560  4.0390096024378668
  0.6350188764402543 14.1136478537507983  4.0390096024129365
  7.2219680454053483 14.1136478537651779  4.0390096024450282
  0.6350188764355109  6.2496375441141714 10.2526743971430800
  7.2219680453742914  6.2496375441057284 10.2526743971237160
  0.6350188764300296 14.1136478537390069 10.2526743971367029
  7.2219680453670314 14.1136478537268495 10.2526743971208845
  1.0544912303299578  7.8324442609663167  4.7921564962708585
  7.6414403990686273  7.8324442611062262  4.7921564965519217
  1.0544912303122056 15.6964545706067291  4.7921564962946128
  7.6414403992635496 15.6964545706010234  4.7921564962843579
  1.0544912303745853  7.8324442609382752 11.0058212909509798
  7.6414403992993503  7.8324442609535758 11.0058212909833877
  1.0544912303966611 15.6964545705499248 11.0058212909194300
  7.6414403994145168 15.6964545705038585 11.0058212908280595
  0.1926613410903718  1.7274684989335960  5.9527345448787852
  6.7796105100514445  1.7274684989706568  5.9527345448548621
  0.1926613410926521  9.5914788085587404  5.9527345448767752
  6.7796105100126605  9.5914788085700771  5.9527345449107223
  0.1926613411012938  1.7274684989329945 12.1663993396007442
  6.7796105100613975  1.7274684989290543 12.1663993395872012
  0.1926613411028065  9.5914788085780476 12.1663993395990389
  6.7796105100364068  9.5914788085428988 12.1663993396210035
  5.5324579795186164  0.0315660202133297  1.4215082427888499
 12.1194071484877846  0.0315660201965018  1.4215082427551871
  5.5324579798025546  7.8955763296498871  1.4215082424004732
 12.1194071484983414  7.8955763298161958  1.4215082427377597
  5.5324579793082931  0.0315660203455655  7.6351730378022227
 12.1194071485069070  0.0315660201825084  7.6351730374676627
  5.5324579793551401  7.8955763299443937  7.6351730377408131
 12.1194071484931420  7.8955763298206181  7.6351730374885092
  6.3942878089313266  6.1365418123538102  0.2609302780737325
 12.9812369778480559  6.1365418123777760  0.2609302781152453
  6.3942878088948092 14.0005521219985578  0.2609302781313197
 12.9812369778384991 14.0005521219812756  0.2609302781314289
  6.3942878088714661  6.1365418123621787  6.4745950729011801
 12.9812369778412915  6.1365418123539355  6.4745950728693868
  6.3942878088638730 14.0005521220000553  6.4745950729100192
 12.9812369778481145 14.0005521219956695  6.4745950728584702
  2.2389827932398365  7.8324440460636904  1.6853244423490090
  8.8259319621769645  7.8324440460542073  1.6853244423315730
  2.2389827933714885 15.6964543557800340  1.6853244425263711
  8.8259319622513619 15.6964543557350140  1.6853244424373028
  2.2389827932108295  7.8324440460442162  7.8989892370495740
  8.8259319623709214  7.8324440461836611  7.8989892373348143
  2.2389827932189146 15.6964543556764902  7.8989892370573758
  8.8259319622661465 15.6964543557414178  7.8989892371935495
  4.3479657853592508  3.9635712003809398  4.7921563166267562
 10.9349149540882404  3.9635712002362578  4.7921563169183576
  4.3479657852815770 11.8275815099581330  4.7921563167296934
 10.9349149542671640 11.8275815099867394  4.7921563166767625
  4.3479657853926419  3.9635712004073396 11.0058211113179070
 10.9349149543783319  3.9635712004274488 11.0058211112687054
  4.3479657851436162 11.8275815098676791 11.0058211116512741
 10.9349149543840056 11.8275815100603534 11.0058211112596869
  5.5324571595277350  3.9635713288012528  1.6853244267624572
 12.1194063284702569  3.9635713287987215  1.6853244267591070
  5.5324571595590522 11.8275816384048600  1.6853244268102119
 12.1194063283314950 11.8275816385207602  1.6853244265733349
  5.5324571591504244  3.9635713290412284  7.8989892210033892
 12.1194063283182611  3.9635713289001968  7.8989892212956034
  5.5324571592658485 11.8275816385911039  7.8989892211574988
 12.1194063283601157 11.8275816384992769  7.8989892213539488
  4.3479663864373146  0.0315662689477908  4.5283403658202097
 10.9349155553899990  0.0315662689560375  4.5283403658322667
  4.3479663865358651  7.8955765786476597  4.5283403659604735
 10.9349155554009236  7.8955765785879715  4.5283403658421904
  4.3479663864100919  0.0315662689294086 10.7420051605216482
 10.9349155555450910  0.0315662690551766 10.7420051607782163
  4.3479663866318949  7.8955765787099566 10.7420051608256983
 10.9349155556303685  7.8955765787403873 10.7420051608923472
  2.2389833993602251  3.9004391194219812  1.4215084578026256
  8.8259325683072944  3.9004391194268941  1.4215084577982171
  2.2389833994036503 11.7644494290838164  1.4215084577387727
  8.8259325682538439 11.7644494290181978  1.4215084578706612
  2.2389833992235579  3.9004391193306320  7.6351732527266885
  8.8259325685107655  3.9004391195568879  7.6351732522660027
  2.2389833994058881 11.7644494290844133  7.6351732524789320
  8.8259325684077847 11.7644494291135597  7.6351732524110778
  1.0544919625734246  3.9004390122574413  4.5283403037555949
  7.6414411315462205  3.9004390122351711  4.5283403037910004
  1.0544919625610278 11.7644493218944124  4.5283403037398307
  7.6414411312908630 11.7644493220360520  4.5283403034475951
  1.0544919626087650  3.9004390122345702 10.7420050985422186
  7.6414411316092119  3.9004390122010184 10.7420050986172235
  1.0544919626749254 11.7644493218176205 10.7420050986349391
  7.6414411316449229 11.7644493218045696 10.7420050986620552
  3.1008132280489624  1.7274683274906271  2.8459019846439420
  9.6877623969888749  1.7274683274772027  2.8459019846352778
  3.1008132280286409  9.5914786371092653  2.8459019846146147
  9.6877623969748239  9.5914786371125373  2.8459019846098723
  3.1008132280258480  1.7274683274991576  9.0595667793462908
  9.6877623969949340  1.7274683274684863  9.0595667793810009
  3.1008132280229450  9.5914786371112957  9.0595667793448555
  9.6877623969947528  9.5914786371290681  9.0595667793818357
  3.4861360016219285  2.2045367809010408  5.9527344780222542
 10.0730851705304545  2.2045367809163898  5.9527344780744667
  3.4861360016126048 10.0685470905236585  5.9527344780366320
 10.0730851705567712 10.0685470905568000  5.9527344780401439
  3.4861360016153360  2.2045367809288843 12.1663992727673858
 10.0730851705773095  2.2045367808924157 12.1663992727438774
  3.4861360015962841 10.0685470904993082 12.1663992727906525
 10.0730851705848945 10.0685470905046230 12.1663992727318746
  6.3942879390086134  2.2045368787984376  2.8459019829368559
 12.9812371079574600  2.2045368787971458  2.8459019829359260
  6.3942879390365919 10.0685471884962876  2.8459019829781296
 12.9812371079411619 10.0685471884439774  2.8459019829132850
  6.3942879389502929  2.2045368787803712  9.0595667775887829
 12.9812371079389131  2.2045368788075028  9.0595667776507725
  6.3942879389645979 10.0685471883956321  9.0595667776064381
 12.9812371079370408 10.0685471884212809  9.0595667776513018
  3.4861359456828658  6.1365419801325451  3.3677628167472107
 10.0730851146117324  6.1365419801534431  3.3677628167160680
  3.4861359456659478 14.0005522897750829  3.3677628167185563
 10.0730851146171752 14.0005522897664019  3.3677628167255862
  3.4861359456971917  6.1365419801295502  9.5814276115023631
 10.0730851146428559  6.1365419801540355  9.5814276115026527
  3.4861359456606626 14.0005522897832719  9.5814276114480244
 10.0730851146399445 14.0005522897636432  9.5814276115002475
  3.1008131782933037  5.6594735407257382  0.2609303019508536
  9.6877623472361947  5.6594735407426846  0.2609303019559741
  3.1008131783144877 13.5234838503154187  0.2609303019181777
  9.6877623472370580 13.5234838503487484  0.2609303019560500
  3.1008131782814772  5.6594735407131438  6.4745950967106847
  9.6877623472890395  5.6594735406783396  6.4745950966208543
  3.1008131783051973 13.5234838503565076  6.4745950966770884
  9.6877623472629875 13.5234838503387724  6.4745950966615942
  0.1926612321662705  5.6594734412790757  3.3677628150010896
  6.7796104011037990  5.6594734412267815  3.3677628149818730
  0.1926612321672360 13.5234837509215300  3.3677628150039602
  6.7796104010819302 13.5234837509148953  3.3677628149528376
  0.1926612321760995  5.6594734412966554  9.5814276097570854
  6.7796104011372984  5.6594734413213832  9.5814276097857238
  0.1926612321835558 13.5234837509227095  9.5814276097679461
  6.7796104011437119 13.5234837509477153  9.5814276097883546
