 C  H  N 
 1.0000000000000000
    16.7350880061309972    0.0000059962418442   -0.0000006354122529
    -0.0000044474394822   12.4124899119374312    0.0000003859462693
     0.0000008128790407   -0.0000006656806949   21.4090902884877536
 C   H   N  
 144 192  96
Selective dynamics
Cartesian
  2.4278105745283027  0.6897606605740434  2.7677367280142988   T   T   T
 10.7953545775939066  0.6897636586949657  2.7677364103081712   T   T   T
  2.4278108454879739  0.6897604386804786  9.9041001575101575   T   T   T
 10.7953548485535897  0.6897634368013997  9.9040998398040241   T   T   T
  2.4278111164476552  0.6897602167869140 17.0404635870059771   T   T   T
 10.7953551195132764  0.6897632149078364 17.0404632692998561   T   T   T
  6.6115786836839021 11.7227534347020637  4.3686017837544320   T   T   T
 14.9791226867494895 11.7227564328229725  4.3686014660483128   T   T   T
  6.6115789546435781 11.7227532128084775 11.5049652132503795   T   T   T
 14.9791229577091745 11.7227562109294130 11.5049648955442603   T   T   T
  6.6115792256032497 11.7227529909149339 18.6413286427461067   T   T   T
 14.9791232286688576 11.7227559890358535 18.6413283250399857   T   T   T
  2.4278089805676633  5.5165069185024329  6.3359185928421331   T   T   T
 10.7953529836332702  5.5165099166233489  6.3359182751360041   T   T   T
  2.4278092515273473  5.5165066966088752 13.4722820223380229   T   T   T
 10.7953532545929267  5.5165096947297902 13.4722817046318983   T   T   T
  2.4278095224870260  5.5165064747153147 20.6086454518339366   T   T   T
 10.7953535255526329  5.5165094728362352 20.6086451341277801   T   T   T
  6.6115802776445181  6.8960071767737015  0.8004199189266495   T   T   T
 14.9791242807101010  6.8960101748946228  0.8004196012205230   T   T   T
  6.6115805486041950  6.8960069548801357  7.9367833484225736   T   T   T
 14.9791245516698073  6.8960099530010606  7.9367830307164571   T   T   T
  6.6115808195638772  6.8960067329865700 15.0731467779185078   T   T   T
 14.9791248226294762  6.8960097311074913 15.0731464602123868   T   T   T
  3.2654357582444398  1.4692882260488538  3.5955392866733011   T   T   T
 11.6329797613099970  1.4692912241697760  3.5955389689671753   T   T   T
  3.2654360292041198  1.4692880041552878 10.7319027161692127   T   T   T
 11.6329800322696784  1.4692910022762102 10.7319023984630970   T   T   T
  3.2654363001637985  1.4692877822617216 17.8682661456649434   T   T   T
 11.6329803032293686  1.4692907803826456 17.8682658279588473   T   T   T
  7.4492043631534086 10.9432264694756523  3.5407991614881014   T   T   T
 15.8167483662190271 10.9432294675965736  3.5407988437819764   T   T   T
  7.4492046341130846 10.9432262475820892 10.6771625909839862   T   T   T
 15.8167486371786890 10.9432292457030123 10.6771622732778741   T   T   T
  7.4492049050727598 10.9432260256885456 17.8135260204798165   T   T   T
 15.8167489081383845 10.9432290238094687 17.8135257027736920   T   T   T
  3.2654344519389542  4.7369801236911888  0.0273576735289169   T   T   T
 11.6329784550045350  4.7369831218121128  0.0273573558227904   T   T   T
  3.2654347228986338  4.7369799017976311  7.1637211030248444   T   T   T
 11.6329787259642341  4.7369828999185524  7.1637207853187279   T   T   T
  3.2654349938583125  4.7369796799040609 14.3000845325207795   T   T   T
 11.6329789969238941  4.7369826780249751 14.3000842148146585   T   T   T
  7.4492056694588848  7.6755345718333006  7.1089807746324762   T   T   T
 15.8167496725244554  7.6755375699542254  7.1089804569263535   T   T   T
  7.4492059404185733  7.6755343499397366 14.2453442041283918   T   T   T
 15.8167499434841439  7.6755373480606535 14.2453438864222655   T   T   T
  7.4492062113782609  7.6755341280461682 21.3817076336242913   T   T   T
 15.8167502144438270  7.6755371261670833 21.3817073159181597   T   T   T
  2.4546061658736553  2.4960215736248346  4.0626350314836648   T   T   T
 10.8221501689392490  2.4960245717457563  4.0626347137775349   T   T   T
  2.4546064368333309  2.4960213517312679 11.1989984609795705   T   T   T
 10.8221504398989481  2.4960243498521897 11.1989981432734531   T   T   T
  2.4546067077930225  2.4960211298377053 18.3353618904753688   T   T   T
 10.8221507108585921  2.4960241279586293 18.3353615727692514   T   T   T
  6.6383754710771088  9.9164925408536728  3.0737034782502355   T   T   T
 15.0059194741426989  9.9164955389746030  3.0737031605441119   T   T   T
  6.6383757420367777  9.9164923189600955 10.2100669077461212   T   T   T
 15.0059197451023927  9.9164953170810346 10.2100665900399967   T   T   T
  6.6383760129964742  9.9164920970665662 17.3464303372419408   T   T   T
 15.0059200160620350  9.9164950951874733 17.3464300195357843   T   T   T
  2.4546055953328385  3.7102461660220563  0.4944533544900547   T   T   T
 10.8221495983984806  3.7102491641429820  0.4944530367839276   T   T   T
  2.4546058662925208  3.7102459441284883  7.6308167839859955   T   T   T
 10.8221498693581619  3.7102489422494096  7.6308164662798621   T   T   T
  2.4546061372521959  3.7102457222349279 14.7671802134819377   T   T   T
 10.8221501403178308  3.7102487203558492 14.7671798957758131   T   T   T
  6.6383760416179154  8.7022679484563046  6.6418851552438829   T   T   T
 15.0059200446835241  8.7022709465772383  6.6418848375377539   T   T   T
  6.6383763125776021  8.7022677265627362 13.7782485847397762   T   T   T
 15.0059203156431806  8.7022707246836681 13.7782482670336428   T   T   T
  6.6383765835372834  8.7022675046691820 20.9146120142356793   T   T   T
 15.0059205866028567  8.7022705027901051 20.9146116965295690   T   T   T
  5.9870508870606418  2.2700475130979743  6.6750062028342168   T   T   T
 14.3545948901262115  2.2700505112188973  6.6750058851280887   T   T   T
  5.9870511580203187  2.2700472912044121 13.8113696323301252   T   T   T
 14.3545951610858786  2.2700502893253329 13.8113693146239971   T   T   T
  5.9870514289800090  2.2700470693108454 20.9477330618260211   T   T   T
 14.3545954320455582  2.2700500674317650 20.9477327441199215   T   T   T
  1.8032758288854573 10.1424661346345975  0.4613323563600430   T   T   T
 10.1708198319510359 10.1424691327555347  0.4613320386539157   T   T   T
  1.8032760998451363 10.1424659127410415  7.5976957858559810   T   T   T
 10.1708201029106995 10.1424689108619557  7.5976954681498556   T   T   T
  1.8032763708048178 10.1424656908474731 14.7340592153519285   T   T   T
 10.1708203738703933 10.1424686889683926 14.7340588976457987   T   T   T
  5.9870501545843444  3.9362225954690300  3.1068245398932501   T   T   T
 14.3545941576499061  3.9362255935899535  3.1068242221871221   T   T   T
  5.9870504255440222  3.9362223735754651 10.2431879693891297   T   T   T
 14.3545944286095644  3.9362253716963926 10.2431876516829963   T   T   T
  5.9870506965036983  3.9362221516818994 17.3795513988848960   T   T   T
 14.3545946995692741  3.9362251498028185 17.3795510811787786   T   T   T
  1.8032765613617447  8.4762910522634058  4.0295140193009784   T   T   T
 10.1708205644273324  8.4762940503843236  4.0295137015948495   T   T   T
  1.8032768323214241  8.4762908303698357 11.1658774487969055   T   T   T
 10.1708208353870084  8.4762938284907463 11.1658771310908076   T   T   T
  1.8032771032811046  8.4762906084762584 18.3022408782926931   T   T   T
 10.1708211063467004  8.4762936065971974 18.3022405605865757   T   T   T
  5.1033047211851628  1.3006031937664220  7.1926933134487250   T   T   T
 13.4708487242506809  1.3006061918873437  7.1926929957426013   T   T   T
  5.1033049921448344  1.3006029718728578 14.3290567429446547   T   T   T
 13.4708489952103569  1.3006059699937778 14.3290564252385089   T   T   T
  5.1033052631045166  1.3006027499792931 21.4654201724405738   T   T   T
 13.4708492661700063  1.3006057481002160 21.4654198547344279   T   T   T
  0.9195289289874919 11.1119098206670461 -0.0563546871447658   T   T   T
  9.2870729320530501 11.1119128187879603 -0.0563550048508922   T   T   T
  0.9195291999471713 11.1119095987734973  7.0800087423511666   T   T   T
  9.2870732030127048 11.1119125968944221  7.0800084246450341   T   T   T
  0.9195294709068509 11.1119093768799111 14.2163721718471123   T   T   T
  9.2870734739723879 11.1119123750008146 14.2163718541409789   T   T   T
  5.1033032939983700  4.9056662493082808  3.6245117107943483   T   T   T
 13.4708472970638962  4.9056692474291941  3.6245113930882207   T   T   T
  5.1033035649580505  4.9056660274147061 10.7608751402902314   T   T   T
 13.4708475680236077  4.9056690255356372 10.7608748225841158   T   T   T
  5.1033038359177354  4.9056658055211422 17.8972385697860226   T   T   T
 13.4708478389832766  4.9056688036420573 17.8972382520799052   T   T   T
  0.9195303561742648  7.5068467651252009  3.5118269155096038   T   T   T
  9.2870743592398011  7.5068497632461275  3.5118265978034766   T   T   T
  0.9195306271339456  7.5068465432316316 10.6481903450055384   T   T   T
  9.2870746301994984  7.5068495413525609 10.6481900272994103   T   T   T
  0.9195308980936246  7.5068463213380721 17.7845537745012869   T   T   T
  9.2870749011591602  7.5068493194589943 17.7845534567951802   T   T   T
  5.8355119622559792  0.6215930567275055  1.0218361208029501   T   T   T
 14.2030559653215533  0.6215960548484287  1.0218358030968226   T   T   T
  5.8355122332156686  0.6215928348339421  8.1581995502988622   T   T   T
 14.2030562362812631  0.6215958329548634  8.1581992325927359   T   T   T
  5.8355125041753491  0.6215926129403787 15.2945629797948222   T   T   T
 14.2030565072409356  0.6215956110612992 15.2945626620886976   T   T   T
  1.6517361520754823 11.7909204824108826  6.1145024498988132   T   T   T
 10.0192801551410433 11.7909234805318093  6.1145021321926851   T   T   T
  1.6517364230351592 11.7909202605173018 13.2508658793948282   T   T   T
 10.0192804261007300 11.7909232586382320 13.2508655616886770   T   T   T
  1.6517366939948408 11.7909200386237298 20.3872293088906567   T   T   T
 10.0192806970604149 11.7909230367446671 20.3872289911845321   T   T   T
  5.8355103194450599  5.5846770729040163  4.5900179898699438   T   T   T
 14.2030543225106296  5.5846800710249385  4.5900176721638113   T   T   T
  5.8355105904047369  5.5846768510104479 11.7263814193658327   T   T   T
 14.2030545934703039  5.5846798491313621 11.7263811016597082   T   T   T
  5.8355108613644262  5.5846766291168839 18.8627448488616380   T   T   T
 14.2030548644299763  5.5846796272378150 18.8627445311555277   T   T   T
  1.6517377948864120  6.8278364662343947  2.5463205808318299   T   T   T
 10.0192817979519795  6.8278394643553142  2.5463202631257045   T   T   T
  1.6517380658460961  6.8278362443408307  9.6826840103277263   T   T   T
 10.0192820689116751  6.8278392424617484  9.6826836926215929   T   T   T
  1.6517383368057759  6.8278360224472667 16.8190474398234890   T   T   T
 10.0192823398713333  6.8278390205681907 16.8190471221173752   T   T   T
  0.3807664245526132  2.8979509752839729  3.6223441754939159   T   T   T
  8.7483104276181649  2.8979539734048960  3.6223438577877882   T   T   T
  0.3807666955122939  2.8979507533904134 10.7587076049898727   T   T   T
  8.7483106985778321  2.8979537515113298 10.7587072872837446   T   T   T
  0.3807669664719744  2.8979505314968446 17.8950710344856390   T   T   T
  8.7483109695375365  2.8979535296177650 17.8950707167794896   T   T   T
  4.5645360512167583  9.5145616530661954  3.5139944917226709   T   T   T
 12.9320800542822880  9.5145646511870972  3.5139941740165428   T   T   T
  4.5645363221764423  9.5145614311726199 10.6503579212185571   T   T   T
 12.9320803252419907  9.5145644292935323 10.6503576035124308   T   T   T
  4.5645365931361379  9.5145612092790603 17.7867213507143695   T   T   T
 12.9320805962016721  9.5145642073999710 17.7867210330082131   T   T   T
  0.3807661420378071  3.3083153056148848  0.0541624735055691   T   T   T
  8.7483101451033800  3.3083183037358066  0.0541621557994427   T   T   T
  0.3807664129974860  3.3083150837213227  7.1905259030014932   T   T   T
  8.7483104160630454  3.3083180818422488  7.1905255852953660   T   T   T
  0.3807666839571675  3.3083148618277591 14.3268893324974531   T   T   T
  8.7483106870227161  3.3083178599486782 14.3268890147913268   T   T   T
  4.5645363337315805  9.1041973227352511  7.0821761937110264   T   T   T
 12.9320803367971351  9.1042003208561848  7.0821758760048992   T   T   T
  4.5645366046912557  9.1041971008416986 14.2185396232069152   T   T   T
 12.9320806077567987  9.1042000989626128 14.2185393055007925   T   T   T
  4.5645368756509335  9.1041968789481409 21.3549030527028769   T   T   T
 12.9320808787164818  9.1041998770690657 21.3549027349967275   T   T   T
  2.6622262139479802  3.3293855572970132  4.7116835506061223   T   T   T
 11.0297702170135903  3.3293885554179297  4.7116832328999925   T   T   T
  2.6622264849076660  3.3293853354034368 11.8480469801020245   T   T   T
 11.0297704879732787  3.3293883335243595 11.8480466623958840   T   T   T
  2.6622267558673429  3.3293851135098702 18.9844104095978423   T   T   T
 11.0297707589329157  3.3293881116307973 18.9844100918916965   T   T   T
  6.8459960670587021  9.0831287059636043  2.4246549433615359   T   T   T
 15.2135400701242887  9.0831317040845168  2.4246546256554136   T   T   T
  6.8459963380183657  9.0831284840700519  9.5610183728574132   T   T   T
 15.2135403410839984  9.0831314821909519  9.5610180551512816   T   T   T
  6.8459966089780506  9.0831282621764764 16.6973818023532345   T   T   T
 15.2135406120436727  9.0831312602974084 16.6973814846471100   T   T   T
  2.6622262406017265  2.8768822907698675  1.1435018217883222   T   T   T
 11.0297702436672900  2.8768852888907896  1.1435015040821952   T   T   T
  2.6622265115614052  2.8768820688763039  8.2798652512841446   T   T   T
 11.0297705146269802  2.8768850669972221  8.2798649335780219   T   T   T
  2.6622267825210875  2.8768818469827404 15.4162286807801738   T   T   T
 11.0297707855866793  2.8768848451036608 15.4162283630740387   T   T   T
  6.8459960404049509  9.5356319724907497  5.9928366721793465   T   T   T
 15.2135400434705641  9.5356349706116728  5.9928363544732219   T   T   T
  6.8459963113646447  9.5356317505971990 13.1292001016753499   T   T   T
 15.2135403144302277  9.5356347487181097 13.1291997839692254   T   T   T
  6.8459965823243278  9.5356315287036555 20.2655635311711784   T   T   T
 15.2135405853899144  9.5356345268245430 20.2655632134650716   T   T   T
  4.3047559542332046  1.3042893185696049  3.8203511135390542   T   T   T
 12.6722999572987600  1.3042923166905267  3.8203507958329244   T   T   T
  4.3047562251928682  1.3042890966760379 10.9567145430349626   T   T   T
 12.6723002282584591  1.3042920947969590 10.9567142253288488   T   T   T
  4.3047564961525620  1.3042888747824732 18.0930779725307431   T   T   T
 12.6723004992181334  1.3042918729033932 18.0930776548246399   T   T   T
  0.1209804207652584 11.1082231236181812  3.3159875734048794   T   T   T
  8.4885244238308015 11.1082261217391114  3.3159872556987526   T   T   T
  0.1209806917249385 11.1082229017246199 10.4523510029007642   T   T   T
  8.4885246947904669 11.1082258998455412 10.4523506851946308   T   T   T
  0.1209809626846184 11.1082226798310533 17.5887144323965714   T   T   T
  8.4885249657501181 11.1082256779519852 17.5887141146904220   T   T   T
  4.3047545296880489  4.9019797619743812  0.2521695106554396   T   T   T
 12.6722985327536133  4.9019827600952999  0.2521691929493136   T   T   T
  4.3047548006477321  4.9019795400808217  7.3885329401513609   T   T   T
 12.6722988037132911  4.9019825382017448  7.3885326224452310   T   T   T
  4.3047550716074081  4.9019793181872560 14.5248963696473403   T   T   T
 12.6722990746729955  4.9019823163081737 14.5248960519412069   T   T   T
  0.1209818453103982  7.5105326802134256  6.8841691762884887   T   T   T
  8.4885258483759376  7.5105356783343433  6.8841688585823704   T   T   T
  0.1209821162700784  7.5105324583198572 14.0205326057843944   T   T   T
  8.4885261193356190  7.5105354564407794 14.0205322880782575   T   T   T
  0.1209823872297586  7.5105322364262967 21.1568960352803117   T   T   T
  8.4885263902953003  7.5105352345472136 21.1568957175741872   T   T   T
  2.6662621426929589 12.2078199820388882  2.2110987337102941   T   T   T
 11.0338061457585557 12.2078229801598148  2.2110984160041713   T   T   T
  2.6662624136526416 12.2078197601453056  9.3474621632061616   T   T   T
 11.0338064167182459 12.2078227582662517  9.3474618455000247   T   T   T
  2.6662626846123199 12.2078195382517478 16.4838255927020363   T   T   T
 11.0338066876779113 12.2078225363726744 16.4838252749959082   T   T   T
  6.8500385480419750  0.2046942841163028  4.9252397599506477   T   T   T
 15.2175825511075651  0.2046972822372249  4.9252394422445303   T   T   T
  6.8500388190016537  0.2046940622227378 12.0616031894465490   T   T   T
 15.2175828220672233  0.2046970603436600 12.0616028717404244   T   T   T
  6.8500390899613226  0.2046938403291731 19.1979666189423455   T   T   T
 15.2175830930269154  0.2046968384500949 19.1979663012362565   T   T   T
  2.6662643552163923  6.4109377144695641  5.7792802682135829   T   T   T
 11.0338083582819788  6.4109407125904845  5.7792799505074557   T   T   T
  2.6662646261760714  6.4109374925759894 12.9156436977095748   T   T   T
 11.0338086292416513  6.4109404906969054 12.9156433800034325   T   T   T
  2.6662648971357443  6.4109372706824281 20.0520071272053890   T   T   T
 11.0338089002013291  6.4109402688033414 20.0520068094992716   T   T   T
  6.8500363355185216  6.0015765516856510  1.3570582254473684   T   T   T
 15.2175803385841331  6.0015795498065758  1.3570579077412435   T   T   T
  6.8500366064782021  6.0015763297920994  8.4934216549432229   T   T   T
 15.2175806095438091  6.0015793279130163  8.4934213372370841   T   T   T
  6.8500368774378870  6.0015761078985275 15.6297850844392485   T   T   T
 15.2175808805034922  6.0015791060194434 15.6297847667331276   T   T   T
  7.8777686198115546  0.9855034587988498  1.6601637730342773   T   T   T
 16.2453126228771545  0.9855064569197706  1.6601634553281486   T   T   T
  7.8777688907712387  0.9855032369052855  8.7965272025300951   T   T   T
 16.2453128938367435  0.9855062350262083  8.7965268848239813   T   T   T
  7.8777691617309191  0.9855030150117208 15.9328906320261368   T   T   T
 16.2453131647965066  0.9855060131326456 15.9328903143199927   T   T   T
  3.6939930219381685 11.4270115438353059  5.4761746425831941   T   T   T
 12.0615370250037284 11.4270145419562397  5.4761743248770713   T   T   T
  3.6939932928978472 11.4270113219417393 12.6125380720791469   T   T   T
 12.0615372959633973 11.4270143200626428 12.6125377543730082   T   T   T
  3.6939935638575223 11.4270111000481638 19.7489015015749914   T   T   T
 12.0615375669230875 11.4270140981690904 19.7489011838688242   T   T   T
  7.8777672377809163  5.2207680946329509  5.2283456194709226   T   T   T
 16.2453112408463980  5.2207710927538802  5.2283453017647901   T   T   T
  7.8777675087405941  5.2207678727393878 12.3647090489668514   T   T   T
 16.2453115118061291  5.2207708708603091 12.3647087312607038   T   T   T
  7.8777677797002728  5.2207676508458265 19.5010724784627136   T   T   T
 16.2453117827657962  5.2207706489667434 19.5010721607565962   T   T   T
  3.6939944039688148  7.1917469080012708  1.9079927961465375   T   T   T
 12.0615384070343854  7.1917499061221912  1.9079924784404121   T   T   T
  3.6939946749284935  7.1917466861076980  9.0443562256423995   T   T   T
 12.0615386779940561  7.1917496842286139  9.0443559079362732   T   T   T
  3.6939949458881727  7.1917464642141340 16.1807196551383754   T   T   T
 12.0615389489537161  7.1917494623350580 16.1807193374322438   T   T   T
  5.5743254816668619 12.2145834951566865  1.6702359723925815   T   T   T
 13.9418694847323774 12.2145864932775989  1.6702356546864545   T   T   T
  5.5743257526265380 12.2145832732631341  8.8065994018884304   T   T   T
 13.9418697556920641 12.2145862713840714  8.8065990841822934   T   T   T
  5.5743260235862264 12.2145830513695515 15.9429628313844400   T   T   T
 13.9418700266517561 12.2145860494904923 15.9429625136783049   T   T   T
  1.3905579298682180  0.1979298568165445  5.4661026181428127   T   T   T
  9.7581019329337657  0.1979328549374669  5.4661023004366927   T   T   T
  1.3905582008278992  0.1979296349229799 12.6024660476387531   T   T   T
  9.7581022038934506  0.1979326330439018 12.6024657299326357   T   T   T
  1.3905584717875772  0.1979294130294153 19.7388294771345869   T   T   T
  9.7581024748531267  0.1979324111503372 19.7388291594284730   T   T   T
  5.5743276990363206  6.4041763189251855  5.2384175064753418   T   T   T
 13.9418717021018512  6.4041793170461032  5.2384171887692128   T   T   T
  5.5743279699960038  6.4041760970316179 12.3747809359712395   T   T   T
 13.9418719730615130  6.4041790951525410 12.3747806182651150   T   T   T
  5.5743282409556905  6.4041758751380575 19.5111443654671106   T   T   T
 13.9418722440211820  6.4041788732589842 19.5111440477609790   T   T   T
  1.3905557124987633  6.0083370330480754  1.8979210840600558   T   T   T
  9.7580997155643168  6.0083400311690047  1.8979207663539308   T   T   T
  1.3905559834584438  6.0083368111545212  9.0342845135558942   T   T   T
  9.7580999865239839  6.0083398092754452  9.0342841958497750   T   T   T
  1.3905562544181262  6.0083365892609635 16.1706479430518577   T   T   T
  9.7581002574836653  6.0083395873818759 16.1706476253457616   T   T   T
  4.0823821833176286  1.1201903311960990  6.9051415463945842   T   T   T
 12.4499261863831912  1.1201933293170225  6.9051412286884597   T   T   T
  4.0823824542773135  1.1201901093025335 14.0415049758904900   T   T   T
 12.4499264573428494  1.1201931074234548 14.0415046581843743   T   T   T
  4.0823827252369886  1.1201898874089691 21.1778684053863735   T   T   T
 12.4499267283025290  1.1201928855298922 21.1778680876802490   T   T   T
  8.2661502867366501 11.2923249497578304  0.2311968397297833   T   T   T
 16.6336942898022571 11.2923279478787482  0.2311965220236570   T   T   T
  8.2661505576963261 11.2923247278642211  7.3675602692256978   T   T   T
 16.6336945607619384 11.2923277259851638  7.3675599515195742   T   T   T
  8.2661508286560235 11.2923245059706829 14.5039236987216658   T   T   T
 16.6336948317215843 11.2923275040916078 14.5039233810155377   T   T   T
  4.0823806268459633  5.0860783981600788  3.3369599549594846   T   T   T
 12.4499246299115089  5.0860813962810116  3.3369596372533628   T   T   T
  4.0823808978056588  5.0860781762665157 10.4733233844553730   T   T   T
 12.4499249008711743  5.0860811743874468 10.4733230667492379   T   T   T
  4.0823811687653304  5.0860779543729562 17.6096868139511891   T   T   T
 12.4499251718308699  5.0860809524938730 17.6096864962450574   T   T   T
  8.2661518432082950  7.3264368827938888  3.7993784311648895   T   T   T
 16.6336958462738522  7.3264398809148101  3.7993781134587592   T   T   T
  8.2661521141679728  7.3264366609003204 10.9357418606608192   T   T   T
 16.6336961172335265  7.3264396590212479 10.9357415429547160   T   T   T
  8.2661523851276524  7.3264364390067565 18.0721052901565820   T   T   T
 16.6336963881932114  7.3264394371276849 18.0721049724504716   T   T   T
  5.8071505929761713  3.0038752637892152  5.9060744407934340   T   T   T
 14.1746945960417161  3.0038782619101405  5.9060741230873068   T   T   T
  5.8071508639358509  3.0038750418956464 13.0424378702894259   T   T   T
 14.1746948670014064  3.0038780400165694 13.0424375525833067   T   T   T
  5.8071511348955305  3.0038748200020842 20.1788012997852704   T   T   T
 14.1746951379610806  3.0038778181230050 20.1788009820791601   T   T   T
  1.6233761190581801  9.4086382550256591  1.2302641320619714   T   T   T
  9.9909201221237609  9.4086412531465822  1.2302638143558449   T   T   T
  1.6233763900178599  9.4086380331321013  8.3666275615578147   T   T   T
  9.9909203930834227  9.4086410312530191  8.3666272438516724   T   T   T
  1.6233766609775420  9.4086378112385312 15.5029909910538155   T   T   T
  9.9909206640430988  9.4086408093594436 15.5029906733477087   T   T   T
  5.8071503863661258  3.2023947636775700  2.3378927322181355   T   T   T
 14.1746943894316697  3.2023977617984936  2.3378924145120070   T   T   T
  5.8071506573258196  3.2023945417840092  9.4742561617140133   T   T   T
 14.1746946603913688  3.2023975399049291  9.4742558440078817   T   T   T
  5.8071509282854787  3.2023943198904372 16.6106195912098258   T   T   T
 14.1746949313510324  3.2023973180113634 16.6106192735037261   T   T   T
  1.6233763256682290  9.2101187551372963  4.7984458406372861   T   T   T
  9.9909203287337522  9.2101217532582229  4.7984455229311589   T   T   T
  1.6233765966279072  9.2101185332437421 11.9348092701331367   T   T   T
  9.9909205996934514  9.2101215313646652 11.9348089524270105   T   T   T
  1.6233768675875893  9.2101183113501595 19.0711726996290238   T   T   T
  9.9909208706531309  9.2101213094710843 19.0711723819229171   T   T   T
  1.2191886602899913  2.3022755845606464  3.5282454269945780   T   T   T
  9.5867326633555372  2.3022785826815673  3.5282451092884499   T   T   T
  1.2191889312496735  2.3022753626670815 10.6646088564904300   T   T   T
  9.5867329343152079  2.3022783607880020 10.6646085387843055   T   T   T
  1.2191892022093516  2.3022751407735185 17.8009722859862336   T   T   T
  9.5867332052749017  2.3022781388944393 17.8009719682801375   T   T   T
  5.4029578672343419 10.1102376446087963  3.6080931765541515   T   T   T
 13.7705018702998743 10.1102406427296909  3.6080928588480208   T   T   T
  5.4029581381940259 10.1102374227152261 10.7444566060501003   T   T   T
 13.7705021412595396 10.1102404208361438 10.7444562883439687   T   T   T
  5.4029584091537011 10.1102372008216896 17.8808200355458240   T   T   T
 13.7705024122192228 10.1102401989425985 17.8808197178396746   T   T   T
  1.2191882218694106  3.9039910811155392  7.0964271915452901   T   T   T
  9.5867322249349680  3.9039940792364609  7.0964268738391612   T   T   T
  1.2191884928290873  3.9039908592219792 14.2327906210411719   T   T   T
  9.5867324958946352  3.9039938573428987 14.2327903033350385   T   T   T
  1.2191887637887675  3.9039906373284063 21.3691540505371051   T   T   T
  9.5867327668543378  3.9039936354493250 21.3691537328309913   T   T   T
  5.4029583056549191  8.5085221480537800  0.0399114120034414   T   T   T
 13.7705023087204701  8.5085251461747049  0.0399110942973150   T   T   T
  5.4029585766145916  8.5085219261602028  7.1762748414993691   T   T   T
 13.7705025796801763  8.5085249242811258  7.1762745237932437   T   T   T
  5.4029588475742711  8.5085217042666503 14.3126382709953397   T   T   T
 13.7705028506398346  8.5085247023875592 14.3126379532892081   T   T   T
  1.1785466811252105  1.1961660874876925  2.7181226718597391   T   T   T
  9.5460906841907747  1.1961690856086145  2.7181223541536146   T   T   T
  1.1785469520848930  1.1961658655941287  9.8544861013556080   T   T   T
  9.5460909551504418  1.1961688637150523  9.8544857836494675   T   T   T
  1.1785472230445742  1.1961656437005646 16.9908495308513849   T   T   T
  9.5460912261101196  1.1961686418214859 16.9908492131452959   T   T   T
  5.3623151569424810 11.2163471125571164  4.4182159347752323   T   T   T
 13.7298591600080044 11.2163501106780306  4.4182156170690998   T   T   T
  5.3623154279021570 11.2163468906635373 11.5545793642711345   T   T   T
 13.7298594309677107 11.2163498887844693 11.5545790465650065   T   T   T
  5.3623156988618392 11.2163466687699618 18.6909427937669435   T   T   T
 13.7298597019273565 11.2163496668908795 18.6909424760608260   T   T   T
  1.1785454500586572  5.0101005994428336  6.2863045051958411   T   T   T
  9.5460894531242051  5.0101035975637558  6.2863041874897219   T   T   T
  1.1785457210183352  5.0101003775492723 13.4226679346917717   T   T   T
  9.5460897240838580  5.0101033756701927 13.4226676169856418   T   T   T
  1.1785459919780168  5.0101001556556994 20.5590313641876534   T   T   T
  9.5460899950435625  5.0101031537766225 20.5590310464814969   T   T   T
  5.3623163880090239  7.4024126006020081  0.8500341014391851   T   T   T
 13.7298603910745616  7.4024155987229152  0.8500337837330588   T   T   T
  5.3623166589687061  7.4024123787084379  7.9863975309351058   T   T   T
 13.7298606620342412  7.4024153768293681  7.9863972132289813   T   T   T
  5.3623169299283937  7.4024121568148766 15.1227609604310356   T   T   T
 13.7298609329939101  7.4024151549357970 15.1227606427248968   T   T   T
  7.0749720092676922  1.1851574852508642  1.0479142243025739   T   T   T
 15.4425160123332859  1.1851604833717875  1.0479139065964487   T   T   T
  7.0749722802273745  1.1851572633572989  8.1842776537984783   T   T   T
 15.4425162832929601  1.1851602614782208  8.1842773360923449   T   T   T
  7.0749725511870567  1.1851570414637325 15.3206410832944293   T   T   T
 15.4425165542526379  1.1851600395846551 15.3206407655883048   T   T   T
  2.8911966009608516 11.2273569420935893  6.0884242522774032   T   T   T
 11.2587406040264550 11.2273599402145337  6.0884239345712743   T   T   T
  2.8911968719205317 11.2273567202000297 13.2247876817733854   T   T   T
 11.2587408749861346 11.2273597183209368 13.2247873640672751   T   T   T
  2.8911971428802108 11.2273564983064720 20.3611511112692227   T   T   T
 11.2587411459458053 11.2273594964273773 20.3611507935630947   T   T   T
  7.0749707703107223  5.0211135309650379  4.6160960583233628   T   T   T
 15.4425147733763417  5.0211165290859672  4.6160957406172338   T   T   T
  7.0749710412704170  5.0211133090714837 11.7524594878192588   T   T   T
 15.4425150443360124  5.0211163071924014 11.7524591701131413   T   T   T
  7.0749713122300921  5.0211130871779108 18.8888229173151032   T   T   T
 15.4425153152957080  5.0211160852988348 18.8888225996089574   T   T   T
  2.8911978399178002  7.3914008963794684  2.5202424182566254   T   T   T
 11.2587418429833939  7.3914038945003888  2.5202421005504969   T   T   T
  2.8911981108774838  7.3914006744858973  9.6566058477524894   T   T   T
 11.2587421139430859  7.3914036726068177  9.6566055300463685   T   T   T
  2.8911983818371634  7.3914004525923298 16.7929692772482824   T   T   T