 C  H  O 
        1.0000000000
  13.280667865187084   0.000000000000000   0.000000000000000
   0.000000000000000  15.652494493790332   0.000000000000000
   0.000000000000000   0.000000000000000  12.444147544808944
   64   64  128
 Direct
   0.029122100723303   0.028018006175589   0.459003632505410
   0.529122100723303   0.028018006175589   0.459003632505410
   0.029122100723303   0.528018006175589   0.459003632505410
   0.529122100723303   0.528018006175589   0.459003632505410
   0.029122100723303   0.028018006175589   0.959003632505411
   0.529122100723303   0.028018006175589   0.959003632505411
   0.029122100723303   0.528018006175589   0.959003632505411
   0.529122100723303   0.528018006175589   0.959003632505411
   0.470877910711417   0.471981984233034   0.040996369503947
   0.970877910711417   0.471981984233034   0.040996369503947
   0.470877910711417   0.971981984233034   0.040996369503947
   0.970877910711417   0.971981984233034   0.040996369503947
   0.470877910711417   0.471981984233034   0.540996369503947
   0.970877910711417   0.471981984233034   0.540996369503947
   0.470877910711417   0.971981984233034   0.540996369503947
   0.970877910711417   0.971981984233034   0.540996369503947
   0.220877910711417   0.028018006175589   0.209003632505411
   0.720877910711417   0.028018006175589   0.209003632505411
   0.220877910711417   0.528018006175589   0.209003632505411
   0.720877910711417   0.528018006175589   0.209003632505411
   0.220877910711417   0.028018006175589   0.709003632505411
   0.720877910711417   0.028018006175589   0.709003632505411
   0.220877910711417   0.528018006175589   0.709003632505411
   0.720877910711417   0.528018006175589   0.709003632505411
   0.279122100723303   0.221981984233035   0.459003632505410
   0.779122100723303   0.221981984233035   0.459003632505410
   0.279122100723303   0.721981984233035   0.459003632505410
   0.779122100723303   0.721981984233035   0.459003632505410
   0.279122100723303   0.221981984233035   0.959003632505411
   0.779122100723303   0.221981984233035   0.959003632505411
   0.279122100723303   0.721981984233035   0.959003632505411
   0.779122100723303   0.721981984233035   0.959003632505411
   0.470877910711417   0.221981984233035   0.209003632505411
   0.970877910711417   0.221981984233035   0.209003632505411
   0.470877910711417   0.721981984233035   0.209003632505411
   0.970877910711417   0.721981984233035   0.209003632505411
   0.470877910711417   0.221981984233035   0.709003632505411
   0.970877910711417   0.221981984233035   0.709003632505411
   0.470877910711417   0.721981984233035   0.709003632505411
   0.970877910711417   0.721981984233035   0.709003632505411
   0.279122100723303   0.471981984233034   0.290996369503947
   0.779122100723303   0.471981984233034   0.290996369503947
   0.279122100723303   0.971981984233034   0.290996369503947
   0.779122100723303   0.971981984233034   0.290996369503947
   0.279122100723303   0.471981984233034   0.790996369503947
   0.779122100723303   0.471981984233034   0.790996369503947
   0.279122100723303   0.971981984233034   0.790996369503947
   0.779122100723303   0.971981984233034   0.790996369503947
   0.220877910711417   0.278018006175588   0.040996369503947
   0.720877910711417   0.278018006175588   0.040996369503947
   0.220877910711417   0.778018006175588   0.040996369503947
   0.720877910711417   0.778018006175588   0.040996369503947
   0.220877910711417   0.278018006175588   0.540996369503947
   0.720877910711417   0.278018006175588   0.540996369503947
   0.220877910711417   0.778018006175588   0.540996369503947
   0.720877910711417   0.778018006175588   0.540996369503947
   0.029122100723303   0.278018006175588   0.290996369503947
   0.529122100723303   0.278018006175588   0.290996369503947
   0.029122100723303   0.778018006175588   0.290996369503947
   0.529122100723303   0.778018006175588   0.290996369503947
   0.029122100723303   0.278018006175588   0.790996369503947
   0.529122100723303   0.278018006175588   0.790996369503947
   0.029122100723303   0.778018006175588   0.790996369503947
   0.529122100723303   0.778018006175588   0.790996369503947
   0.048438927133355   0.147909307746656   0.425246587046583
   0.548438927133356   0.147909307746656   0.425246587046583
   0.048438927133355   0.647909307746656   0.425246587046583
   0.548438927133356   0.647909307746656   0.425246587046583
   0.048438927133355   0.147909307746656   0.925246587046583
   0.548438927133356   0.147909307746656   0.925246587046583
   0.048438927133355   0.647909307746656   0.925246587046583
   0.548438927133356   0.647909307746656   0.925246587046583
   0.451561084301364   0.352090682661967   0.074753414962774
   0.951561084301364   0.352090682661967   0.074753414962774
   0.451561084301364   0.852090682661967   0.074753414962774
   0.951561084301364   0.852090682661967   0.074753414962774
   0.451561084301364   0.352090682661967   0.574753414962774
   0.951561084301364   0.352090682661967   0.574753414962774
   0.451561084301364   0.852090682661967   0.574753414962774
   0.951561084301364   0.852090682661967   0.574753414962774
   0.201561084301365   0.147909307746656   0.175246587046583
   0.701561084301365   0.147909307746656   0.175246587046583
   0.201561084301365   0.647909307746656   0.175246587046583
   0.701561084301365   0.647909307746656   0.175246587046583
   0.201561084301365   0.147909307746656   0.675246587046583
   0.701561084301365   0.147909307746656   0.675246587046583
   0.201561084301365   0.647909307746656   0.675246587046583
   0.701561084301365   0.647909307746656   0.675246587046583
   0.298438927133355   0.102090682661968   0.425246587046583
   0.798438927133355   0.102090682661968   0.425246587046583
   0.298438927133355   0.602090682661968   0.425246587046583
   0.798438927133355   0.602090682661968   0.425246587046583
   0.298438927133355   0.102090682661968   0.925246587046583
   0.798438927133355   0.102090682661968   0.925246587046583
   0.298438927133355   0.602090682661968   0.925246587046583
   0.798438927133355   0.602090682661968   0.925246587046583
   0.451561084301364   0.102090682661968   0.175246587046583
   0.951561084301364   0.102090682661968   0.175246587046583
   0.451561084301364   0.602090682661968   0.175246587046583
   0.951561084301364   0.602090682661968   0.175246587046583
   0.451561084301364   0.102090682661968   0.675246587046583
   0.951561084301364   0.102090682661968   0.675246587046583
   0.451561084301364   0.602090682661968   0.675246587046583
   0.951561084301364   0.602090682661968   0.675246587046583
   0.298438927133355   0.352090682661967   0.324753414962774
   0.798438927133355   0.352090682661967   0.324753414962774
   0.298438927133355   0.852090682661967   0.324753414962774
   0.798438927133355   0.852090682661967   0.324753414962774
   0.298438927133355   0.352090682661967   0.824753414962774
   0.798438927133355   0.352090682661967   0.824753414962774
   0.298438927133355   0.852090682661967   0.824753414962774
   0.798438927133355   0.852090682661967   0.824753414962774
   0.201561084301365   0.397909307746655   0.074753414962774
   0.701561084301365   0.397909307746655   0.074753414962774
   0.201561084301365   0.897909307746655   0.074753414962774
   0.701561084301365   0.897909307746655   0.074753414962774
   0.201561084301365   0.397909307746655   0.574753414962774
   0.701561084301365   0.397909307746655   0.574753414962774
   0.201561084301365   0.897909307746655   0.574753414962774
   0.701561084301365   0.897909307746655   0.574753414962774
   0.048438927133355   0.397909307746655   0.324753414962774
   0.548438927133356   0.397909307746655   0.324753414962774
   0.048438927133355   0.897909307746655   0.324753414962774
   0.548438927133356   0.897909307746655   0.324753414962774
   0.048438927133355   0.397909307746655   0.824753414962774
   0.548438927133356   0.397909307746655   0.824753414962774
   0.048438927133355   0.897909307746655   0.824753414962774
   0.548438927133356   0.897909307746655   0.824753414962774
   0.080127716755456   0.497995307042193   0.386291936252169
   0.580127716755456   0.497995307042193   0.386291936252169
   0.080127716755456   0.997995307042193   0.386291936252169
   0.580127716755456   0.997995307042193   0.386291936252169
   0.080127716755456   0.497995307042193   0.886291936252169
   0.580127716755456   0.497995307042193   0.886291936252169
   0.080127716755456   0.997995307042193   0.886291936252169
   0.580127716755456   0.997995307042193   0.886291936252169
   0.014887008282292   0.110333881071608   0.479177042817990
   0.514887008282292   0.110333881071608   0.479177042817990
   0.014887008282292   0.610333881071608   0.479177042817990
   0.514887008282292   0.610333881071608   0.479177042817990
   0.014887008282292   0.110333881071608   0.979177042817990
   0.514887008282292   0.110333881071608   0.979177042817990
   0.014887008282292   0.610333881071608   0.979177042817990
   0.514887008282292   0.610333881071608   0.979177042817990
   0.419872294679264   0.002004683366430   0.113708065757189
   0.919872294679264   0.002004683366430   0.113708065757189
   0.419872294679264   0.502004683366430   0.113708065757189
   0.919872294679264   0.502004683366430   0.113708065757189
   0.419872294679264   0.002004683366430   0.613708065757189
   0.919872294679264   0.002004683366430   0.613708065757189
   0.419872294679264   0.502004683366430   0.613708065757189
   0.919872294679264   0.502004683366430   0.613708065757189
   0.485113003152428   0.389666109337015   0.020822959191367
   0.985113003152428   0.389666109337015   0.020822959191367
   0.485113003152428   0.889666109337015   0.020822959191367
   0.985113003152428   0.889666109337015   0.020822959191367
   0.485113003152428   0.389666109337015   0.520822959191367
   0.985113003152428   0.389666109337015   0.520822959191367
   0.485113003152428   0.889666109337015   0.520822959191367
   0.985113003152428   0.889666109337015   0.520822959191367
   0.169872294679264   0.497995307042193   0.136291936252169
   0.669872294679264   0.497995307042193   0.136291936252169
   0.169872294679264   0.997995307042193   0.136291936252169
   0.669872294679264   0.997995307042193   0.136291936252169
   0.169872294679264   0.497995307042193   0.636291936252169
   0.669872294679264   0.497995307042193   0.636291936252169
   0.169872294679264   0.997995307042193   0.636291936252169
   0.669872294679264   0.997995307042193   0.636291936252169
   0.330127716755455   0.252004683366429   0.386291936252169
   0.830127716755455   0.252004683366429   0.386291936252169
   0.330127716755455   0.752004683366429   0.386291936252169
   0.830127716755455   0.752004683366429   0.386291936252169
   0.330127716755455   0.252004683366429   0.886291936252169
   0.830127716755455   0.252004683366429   0.886291936252169
   0.330127716755455   0.752004683366429   0.886291936252169
   0.830127716755455   0.752004683366429   0.886291936252169
   0.419872294679264   0.252004683366429   0.136291936252169
   0.919872294679264   0.252004683366429   0.136291936252169
   0.419872294679264   0.752004683366429   0.136291936252169
   0.919872294679264   0.752004683366429   0.136291936252169
   0.419872294679264   0.252004683366429   0.636291936252169
   0.919872294679264   0.252004683366429   0.636291936252169
   0.419872294679264   0.752004683366429   0.636291936252169
   0.919872294679264   0.752004683366429   0.636291936252169
   0.330127716755455   0.002004683366430   0.363708065757188
   0.830127716755455   0.002004683366430   0.363708065757188
   0.330127716755455   0.502004683366430   0.363708065757188
   0.830127716755455   0.502004683366430   0.363708065757188
   0.330127716755455   0.002004683366430   0.863708065757188
   0.830127716755455   0.002004683366430   0.863708065757188
   0.330127716755455   0.502004683366430   0.863708065757188
   0.830127716755455   0.502004683366430   0.863708065757188
   0.169872294679264   0.247995307042194   0.113708065757189
   0.669872294679264   0.247995307042194   0.113708065757189
   0.169872294679264   0.747995307042194   0.113708065757189
   0.669872294679264   0.747995307042194   0.113708065757189
   0.169872294679264   0.247995307042194   0.613708065757189
   0.669872294679264   0.247995307042194   0.613708065757189
   0.169872294679264   0.747995307042194   0.613708065757189
   0.669872294679264   0.747995307042194   0.613708065757189
   0.080127716755456   0.247995307042194   0.363708065757188
   0.580127716755456   0.247995307042194   0.363708065757188
   0.080127716755456   0.747995307042194   0.363708065757188
   0.580127716755456   0.747995307042194   0.363708065757188
   0.080127716755456   0.247995307042194   0.863708065757188
   0.580127716755456   0.247995307042194   0.863708065757188
   0.080127716755456   0.747995307042194   0.863708065757188
   0.580127716755456   0.747995307042194   0.863708065757188
   0.235113003152429   0.110333881071608   0.229177042817991
   0.735113003152429   0.110333881071608   0.229177042817991
   0.235113003152429   0.610333881071608   0.229177042817991
   0.735113003152429   0.610333881071608   0.229177042817991
   0.235113003152429   0.110333881071608   0.729177042817991
   0.735113003152429   0.110333881071608   0.729177042817991
   0.235113003152429   0.610333881071608   0.729177042817991
   0.735113003152429   0.610333881071608   0.729177042817991
   0.264887008282291   0.139666109337016   0.479177042817990
   0.764887008282291   0.139666109337016   0.479177042817990
   0.264887008282291   0.639666109337016   0.479177042817990
   0.764887008282291   0.639666109337016   0.479177042817990
   0.264887008282291   0.139666109337016   0.979177042817990
   0.764887008282291   0.139666109337016   0.979177042817990
   0.264887008282291   0.639666109337016   0.979177042817990
   0.764887008282291   0.639666109337016   0.979177042817990
   0.485113003152428   0.139666109337016   0.229177042817991
   0.985113003152428   0.139666109337016   0.229177042817991
   0.485113003152428   0.639666109337016   0.229177042817991
   0.985113003152428   0.639666109337016   0.229177042817991
   0.485113003152428   0.139666109337016   0.729177042817991
   0.985113003152428   0.139666109337016   0.729177042817991
   0.485113003152428   0.639666109337016   0.729177042817991
   0.985113003152428   0.639666109337016   0.729177042817991
   0.264887008282291   0.389666109337015   0.270822959191367
   0.764887008282291   0.389666109337015   0.270822959191367
   0.264887008282291   0.889666109337015   0.270822959191367
   0.764887008282291   0.889666109337015   0.270822959191367
   0.264887008282291   0.389666109337015   0.770822959191367
   0.764887008282291   0.389666109337015   0.770822959191367
   0.264887008282291   0.889666109337015   0.770822959191367
   0.764887008282291   0.889666109337015   0.770822959191367
   0.235113003152429   0.360333881071608   0.020822959191367
   0.735113003152429   0.360333881071608   0.020822959191367
   0.235113003152429   0.860333881071608   0.020822959191367
   0.735113003152429   0.860333881071608   0.020822959191367
   0.235113003152429   0.360333881071608   0.520822959191367
   0.735113003152429   0.360333881071608   0.520822959191367
   0.235113003152429   0.860333881071608   0.520822959191367
   0.735113003152429   0.860333881071608   0.520822959191367
   0.014887008282292   0.360333881071608   0.270822959191367
   0.514887008282292   0.360333881071608   0.270822959191367
   0.014887008282292   0.860333881071608   0.270822959191367
   0.514887008282292   0.860333881071608   0.270822959191367
   0.014887008282292   0.360333881071608   0.770822959191367
   0.514887008282292   0.360333881071608   0.770822959191367
   0.014887008282292   0.860333881071608   0.770822959191367
   0.514887008282292   0.860333881071608   0.770822959191367
