 C  H 
 1.0000000000000000
    25.0000000000000000    0.0000000000000000    0.0000000000000000
     0.0000000000000000   25.0000000000000000    0.0000000000000000
     0.0000000000000000    0.0000000000000000   20.0000000000000000
 C   H  
  10   8
Cartesian
  4.9409678542773436  4.1869544701784918  5.0002976499093350
  6.3203400037419977  4.1874952301508381  5.0000974645045888
  7.0503169532670267  5.4091500320928736  5.0002076909128990
  6.3223752689857857  6.6523733014183737  5.0005334205721708
  4.8997699664169696  6.6136315043339762  5.0007331226007254
  4.2242644101155022  5.4109843868329772  5.0006183511616786
  8.4729222559151349  5.4478918287871716  5.0000079886508990
  7.0523522185164778  7.8740281033574631  5.0006436464019899
  8.4317243679202800  7.8745688630088733  5.0004434605756183
  9.1484278122891620  6.6505389462954003  5.0001227594624682
  9.0200271814996977  4.5121225524569262  4.9997629319533408
  4.3981505827326952  3.2501844727376219  5.0002106691452015
  6.8686571697210095  3.2524357542257025  4.9998523566410169
  4.3526650404717682  7.5494007803214931  5.0009781795636368
  3.1416909218226947  5.3960430242852011  5.0007728937507423
  6.5040350533663229  8.8090875798572998  5.0008887542782698
  8.9745416383187795  8.8113388610760079  5.0005304424027770
 10.2310013006213509  6.6654803085833043  4.9999682175126052
