 N  C  H 
 1.0000000000000000
    22.0000000000000000    0.0000000000000000    0.0000000000000000
     0.0000000000000000   22.0000000000000000    0.0000000000000000
     0.0000000000000000    0.0000000000000000   22.0000000000000000
 N   C   H  
   2   1   2
Cartesian
  4.3465386269590054  5.5419830952516831  4.9339385044285118
  4.4651616515771702  4.3909550179544459  7.1641715367515619
  4.4402115940595328  4.9025926643077176  6.1209193677343663
  4.0753820166431840  4.9584288032605572  4.1516682365747437
  5.1233461107611085  6.1531804192255972  4.7125423545108172
