 C  H  O 
 1.0000000000000000
    13.0960000000000001    0.0000000000000000    0.0000000000000000
     0.0000000000000000   15.6880000000000006    0.0000000000000000
     0.0000000000000000    0.0000000000000000   12.1720000000000006
 C   H   O  
  64  64 128
Cartesian
  0.3758332029758594  0.4323271103272812  5.5671404818586590
  6.1721667971144001  7.4116728894025714  0.5188595176218131
  2.8981668627334742  0.4323272607123306  2.5241404573143091
  3.6498332863624103  3.4896725854025754  5.5671407693674420
  6.1721669467732543  3.4896726839174277  2.5241405462070841
  3.6498331378228412  7.4116727392031754  3.5618595425992474
  2.8981667141985112  4.3543274145286484  0.5188592305315853
  0.3758330537886903  4.3543273158263034  3.5618594534744701
  0.3758332029758594  0.4323271103272812 11.6531404818586601
  6.1721667971144001  7.4116728894025714  6.6048595176218132
  2.8981668627334742  0.4323272607123306  8.6101404573143085
  3.6498332863624103  3.4896725854025754 11.6531407693674431
  6.1721669467732543  3.4896726839174277  8.6101405462070844
  3.6498331378228412  7.4116727392031754  9.6478595425992477
  2.8981667141985112  4.3543274145286484  6.6048592305315852
  0.3758330537886903  4.3543273158263034  9.6478594534744708
  0.3758332029758594  8.2763271103272817  5.5671404818586590
  6.1721667971144001 15.2556728894025717  0.5188595176218131
  2.8981668627334742  8.2763272607123302  2.5241404573143091
  3.6498332863624103 11.3336725854025762  5.5671407693674420
  6.1721669467732543 11.3336726839174275  2.5241405462070841
  3.6498331378228412 15.2556727392031757  3.5618595425992474
  2.8981667141985112 12.1983274145286487  0.5188592305315853
  0.3758330537886903 12.1983273158263046  3.5618594534744701
  0.3758332029758594  8.2763271103272817 11.6531404818586601
  6.1721667971144001 15.2556728894025717  6.6048595176218132
  2.8981668627334742  8.2763272607123302  8.6101404573143085
  3.6498332863624103 11.3336725854025762 11.6531407693674431
  6.1721669467732543 11.3336726839174275  8.6101405462070844
  3.6498331378228412 15.2556727392031757  9.6478595425992477
  2.8981667141985112 12.1983274145286487  6.6048592305315852
  0.3758330537886903 12.1983273158263046  9.6478594534744708
  6.9238332029758594  0.4323271103272812  5.5671404818586590
 12.7201667971144001  7.4116728894025714  0.5188595176218131
  9.4461668627334738  0.4323272607123306  2.5241404573143091
 10.1978332863624104  3.4896725854025754  5.5671407693674420
 12.7201669467732543  3.4896726839174277  2.5241405462070841
 10.1978331378228404  7.4116727392031754  3.5618595425992474
  9.4461667141985117  4.3543274145286484  0.5188592305315853
  6.9238330537886901  4.3543273158263034  3.5618594534744701
  6.9238332029758594  0.4323271103272812 11.6531404818586601
 12.7201667971144001  7.4116728894025714  6.6048595176218132
  9.4461668627334738  0.4323272607123306  8.6101404573143085
 10.1978332863624104  3.4896725854025754 11.6531407693674431
 12.7201669467732543  3.4896726839174277  8.6101405462070844
 10.1978331378228404  7.4116727392031754  9.6478595425992477
  9.4461667141985117  4.3543274145286484  6.6048592305315852
  6.9238330537886901  4.3543273158263034  9.6478594534744708
  6.9238332029758594  8.2763271103272817  5.5671404818586590
 12.7201667971144001 15.2556728894025717  0.5188595176218131
  9.4461668627334738  8.2763272607123302  2.5241404573143091
 10.1978332863624104 11.3336725854025762  5.5671407693674420
 12.7201669467732543 11.3336726839174275  2.5241405462070841
 10.1978331378228404 15.2556727392031757  3.5618595425992474
  9.4461667141985117 12.1983274145286487  0.5188592305315853
  6.9238330537886901 12.1983273158263046  3.5618594534744701
  6.9238332029758594  8.2763271103272817 11.6531404818586601
 12.7201667971144001 15.2556728894025717  6.6048595176218132
  9.4461668627334738  8.2763272607123302  8.6101404573143085
 10.1978332863624104 11.3336725854025762 11.6531407693674431
 12.7201669467732543 11.3336726839174275  8.6101405462070844
 10.1978331378228404 15.2556727392031757  9.6478595425992477
  9.4461667141985117 12.1983274145286487  6.6048592305315852
  6.9238330537886901 12.1983273158263046  9.6478594534744708
  0.6301450145373882  2.3184278126252602  5.1352678877921072
  5.9178549856633715  5.5255721871812282  0.9507321118788531
  2.6438547761624367  2.3184279037529429  2.0922684781565768
  3.9041454895530641  1.6035720904966571  5.1352683648972706
  5.9178548021181312  1.6035719871856442  2.0922685590904493
  3.9041452244283081  5.5255720961388199  3.9937315218229266
  2.6438545109047080  6.2404279092981829  0.9507316352049582
  0.6301451983521567  6.2404280124957205  3.9937314407459179
  0.6301450145373882  2.3184278126252602 11.2212678877921075
  5.9178549856633715  5.5255721871812282  7.0367321118788535
  2.6438547761624367  2.3184279037529429  8.1782684781565766
  3.9041454895530641  1.6035720904966571 11.2212683648972700
  5.9178548021181312  1.6035719871856442  8.1782685590904496
  3.9041452244283081  5.5255720961388199 10.0797315218229269
  2.6438545109047080  6.2404279092981829  7.0367316352049585
  0.6301451983521567  6.2404280124957205 10.0797314407459186
  0.6301450145373882 10.1624278126252605  5.1352678877921072
  5.9178549856633715 13.3695721871812285  0.9507321118788531
  2.6438547761624367 10.1624279037529437  2.0922684781565768
  3.9041454895530641  9.4475720904966565  5.1352683648972706
  5.9178548021181312  9.4475719871856452  2.0922685590904493
  3.9041452244283081 13.3695720961388229  3.9937315218229266
  2.6438545109047080 14.0844279092981814  0.9507316352049582
  0.6301451983521567 14.0844280124957208  3.9937314407459179
  0.6301450145373882 10.1624278126252605 11.2212678877921075
  5.9178549856633715 13.3695721871812285  7.0367321118788535
  2.6438547761624367 10.1624279037529437  8.1782684781565766
  3.9041454895530641  9.4475720904966565 11.2212683648972700
  5.9178548021181312  9.4475719871856452  8.1782685590904496
  3.9041452244283081 13.3695720961388229 10.0797315218229269
  2.6438545109047080 14.0844279092981814  7.0367316352049585
  0.6301451983521567 14.0844280124957208 10.0797314407459186
  7.1781450145373880  2.3184278126252602  5.1352678877921072
 12.4658549856633734  5.5255721871812282  0.9507321118788531
  9.1918547761624367  2.3184279037529429  2.0922684781565768
 10.4521454895530646  1.6035720904966571  5.1352683648972706
 12.4658548021181304  1.6035719871856442  2.0922685590904493
 10.4521452244283086  5.5255720961388199  3.9937315218229266
  9.1918545109047063  6.2404279092981829  0.9507316352049582
  7.1781451983521567  6.2404280124957205  3.9937314407459179
  7.1781450145373880  2.3184278126252602 11.2212678877921075
 12.4658549856633734  5.5255721871812282  7.0367321118788535
  9.1918547761624367  2.3184279037529429  8.1782684781565766
 10.4521454895530646  1.6035720904966571 11.2212683648972700
 12.4658548021181304  1.6035719871856442  8.1782685590904496
 10.4521452244283086  5.5255720961388199 10.0797315218229269
  9.1918545109047063  6.2404279092981829  7.0367316352049585
  7.1781451983521567  6.2404280124957205 10.0797314407459186
  7.1781450145373880 10.1624278126252605  5.1352678877921072
 12.4658549856633734 13.3695721871812285  0.9507321118788531
  9.1918547761624367 10.1624279037529437  2.0922684781565768
 10.4521454895530646  9.4475720904966565  5.1352683648972706
 12.4658548021181304  9.4475719871856452  2.0922685590904493
 10.4521452244283086 13.3695720961388229  3.9937315218229266
  9.1918545109047063 14.0844279092981814  0.9507316352049582
  7.1781451983521567 14.0844280124957208  3.9937314407459179
  7.1781450145373880 10.1624278126252605 11.2212678877921075
 12.4658549856633734 13.3695721871812285  7.0367321118788535
  9.1918547761624367 10.1624279037529437  8.1782684781565766
 10.4521454895530646  9.4475720904966565 11.2212683648972700
 12.4658548021181304  9.4475719871856452  8.1782685590904496
 10.4521452244283086 13.3695720961388229 10.0797315218229269
  9.1918545109047063 14.0844279092981814  7.0367316352049585
  7.1781451983521567 14.0844280124957208 10.0797314407459186
  1.0288519214048111  7.7879745429756362  4.6533245665615093
  0.2000059646280491  1.7102715168731002  5.8122642795721209
  5.5191480787957623  0.0560254567850379  1.4326754330170823
  6.3479940353719506  6.1337284828854006  0.2737357199315724
  2.2451488273774221  7.7879752541606253  1.6103242632138386
  4.3028519891972223  3.9780249852655571  4.6533248004231087
  5.5191487240587547  3.9780252185228813  1.6103244612016028
  4.3028511731460917  0.0560247458393751  4.4756757367231996
  2.2451480112991202  3.8659750146488903  1.4326751994361344
  1.0288512765793993  3.8659747812246397  4.4756755384300053
  3.0739937197578828  1.7102719061725178  2.7692652445954318
  3.4740059498658931  2.2117280691320409  5.8122649355221307
  6.3479939811678827  2.2117282337369213  2.7692651862144109
  3.4740062809391281  6.1337280937471128  3.3167347553221900
  3.0739940506737189  5.6322719308237614  0.2737350644778697
  0.2000060193020792  5.6322717660034103  3.3167348135753825
  1.0288519214048111  7.7879745429756362 10.7393245665615105
  0.2000059646280491  1.7102715168731002 11.8982642795721212
  5.5191480787957623  0.0560254567850379  7.5186754330170826
  6.3479940353719506  6.1337284828854006  6.3597357199315727
  2.2451488273774221  7.7879752541606253  7.6963242632138389
  4.3028519891972223  3.9780249852655571 10.7393248004231090
  5.5191487240587547  3.9780252185228813  7.6963244612016029
  4.3028511731460917  0.0560247458393751 10.5616757367231990
  2.2451480112991202  3.8659750146488903  7.5186751994361360
  1.0288512765793993  3.8659747812246397 10.5616755384300056
  3.0739937197578828  1.7102719061725178  8.8552652445954330
  3.4740059498658931  2.2117280691320409 11.8982649355221319
  6.3479939811678827  2.2117282337369213  8.8552651862144103
  3.4740062809391281  6.1337280937471128  9.4027347553221912
  3.0739940506737189  5.6322719308237614  6.3597350644778698
  0.2000060193020792  5.6322717660034103  9.4027348135753837
  1.0288519214048111 15.6319745429756392  4.6533245665615093
  0.2000059646280491  9.5542715168731007  5.8122642795721209
  5.5191480787957623  7.9000254567850385  1.4326754330170823
  6.3479940353719506 13.9777284828854000  0.2737357199315724
  2.2451488273774221 15.6319752541606256  1.6103242632138386
  4.3028519891972223 11.8220249852655570  4.6533248004231087
  5.5191487240587547 11.8220252185228816  1.6103244612016028
  4.3028511731460917  7.9000247458393753  4.4756757367231996
  2.2451480112991202 11.7099750146488901  1.4326751994361344
  1.0288512765793993 11.7099747812246395  4.4756755384300053
  3.0739937197578828  9.5542719061725183  2.7692652445954318
  3.4740059498658931 10.0557280691320408  5.8122649355221307
  6.3479939811678827 10.0557282337369216  2.7692651862144109
  3.4740062809391281 13.9777280937471158  3.3167347553221900
  3.0739940506737189 13.4762719308237617  0.2737350644778697
  0.2000060193020792 13.4762717660034106  3.3167348135753825
  1.0288519214048111 15.6319745429756392 10.7393245665615105
  0.2000059646280491  9.5542715168731007 11.8982642795721212
  5.5191480787957623  7.9000254567850385  7.5186754330170826
  6.3479940353719506 13.9777284828854000  6.3597357199315727
  2.2451488273774221 15.6319752541606256  7.6963242632138389
  4.3028519891972223 11.8220249852655570 10.7393248004231090
  5.5191487240587547 11.8220252185228816  7.6963244612016029
  4.3028511731460917  7.9000247458393753 10.5616757367231990
  2.2451480112991202 11.7099750146488901  7.5186751994361360
  1.0288512765793993 11.7099747812246395 10.5616755384300056
  3.0739937197578828  9.5542719061725183  8.8552652445954330
  3.4740059498658931 10.0557280691320408 11.8982649355221319
  6.3479939811678827 10.0557282337369216  8.8552651862144103
  3.4740062809391281 13.9777280937471158  9.4027347553221912
  3.0739940506737189 13.4762719308237617  6.3597350644778698
  0.2000060193020792 13.4762717660034106  9.4027348135753837
  7.5768519214048116  7.7879745429756362  4.6533245665615093
  6.7480059646280486  1.7102715168731002  5.8122642795721209
 12.0671480787957641  0.0560254567850379  1.4326754330170823
 12.8959940353719489  6.1337284828854006  0.2737357199315724
  8.7931488273774203  7.7879752541606253  1.6103242632138386
 10.8508519891972206  3.9780249852655571  4.6533248004231087
 12.0671487240587538  3.9780252185228813  1.6103244612016028
 10.8508511731460899  0.0560247458393751  4.4756757367231996
  8.7931480112991203  3.8659750146488903  1.4326751994361344
  7.5768512765793981  3.8659747812246397  4.4756755384300053
  9.6219937197578833  1.7102719061725178  2.7692652445954318
 10.0220059498658909  2.2117280691320409  5.8122649355221307
 12.8959939811678836  2.2117282337369213  2.7692651862144109
 10.0220062809391273  6.1337280937471128  3.3167347553221900
  9.6219940506737203  5.6322719308237614  0.2737350644778697
  6.7480060193020783  5.6322717660034103  3.3167348135753825
  7.5768519214048116  7.7879745429756362 10.7393245665615105
  6.7480059646280486  1.7102715168731002 11.8982642795721212
 12.0671480787957641  0.0560254567850379  7.5186754330170826
 12.8959940353719489  6.1337284828854006  6.3597357199315727
  8.7931488273774203  7.7879752541606253  7.6963242632138389
 10.8508519891972206  3.9780249852655571 10.7393248004231090
 12.0671487240587538  3.9780252185228813  7.6963244612016029
 10.8508511731460899  0.0560247458393751 10.5616757367231990
  8.7931480112991203  3.8659750146488903  7.5186751994361360
  7.5768512765793981  3.8659747812246397 10.5616755384300056
  9.6219937197578833  1.7102719061725178  8.8552652445954330
 10.0220059498658909  2.2117280691320409 11.8982649355221319
 12.8959939811678836  2.2117282337369213  8.8552651862144103
 10.0220062809391273  6.1337280937471128  9.4027347553221912
  9.6219940506737203  5.6322719308237614  6.3597350644778698
  6.7480060193020783  5.6322717660034103  9.4027348135753837
  7.5768519214048116 15.6319745429756392  4.6533245665615093
  6.7480059646280486  9.5542715168731007  5.8122642795721209
 12.0671480787957641  7.9000254567850385  1.4326754330170823
 12.8959940353719489 13.9777284828854000  0.2737357199315724
  8.7931488273774203 15.6319752541606256  1.6103242632138386
 10.8508519891972206 11.8220249852655570  4.6533248004231087
 12.0671487240587538 11.8220252185228816  1.6103244612016028
 10.8508511731460899  7.9000247458393753  4.4756757367231996
  8.7931480112991203 11.7099750146488901  1.4326751994361344
  7.5768512765793981 11.7099747812246395  4.4756755384300053
  9.6219937197578833  9.5542719061725183  2.7692652445954318
 10.0220059498658909 10.0557280691320408  5.8122649355221307
 12.8959939811678836 10.0557282337369216  2.7692651862144109
 10.0220062809391273 13.9777280937471158  3.3167347553221900
  9.6219940506737203 13.4762719308237617  0.2737350644778697
  6.7480060193020783 13.4762717660034106  3.3167348135753825
  7.5768519214048116 15.6319745429756392 10.7393245665615105
  6.7480059646280486  9.5542715168731007 11.8982642795721212
 12.0671480787957641  7.9000254567850385  7.5186754330170826
 12.8959940353719489 13.9777284828854000  6.3597357199315727
  8.7931488273774203 15.6319752541606256  7.6963242632138389
 10.8508519891972206 11.8220249852655570 10.7393248004231090
 12.0671487240587538 11.8220252185228816  7.6963244612016029
 10.8508511731460899  7.9000247458393753 10.5616757367231990
  8.7931480112991203 11.7099750146488901  7.5186751994361360
  7.5768512765793981 11.7099747812246395 10.5616755384300056
  9.6219937197578833  9.5542719061725183  8.8552652445954330
 10.0220059498658909 10.0557280691320408 11.8982649355221319
 12.8959939811678836 10.0557282337369216  8.8552651862144103
 10.0220062809391273 13.9777280937471158  9.4027347553221912
  9.6219940506737203 13.4762719308237617  6.3597350644778698
  6.7480060193020783 13.4762717660034106  9.4027348135753837
