 C  H 
 1.0000000000000000
    25.0000000000000000    0.0000000000000000    0.0000000000000000
     0.0000000000000000   25.0000000000000000    0.0000000000000000
     0.0000000000000000    0.0000000000000000   25.0000000000000000
 C   H  
   6   6
Cartesian
 12.9153500000000001 11.1683249999999994 12.4795349999999985
 12.0846700000000009 13.8317249999999987 12.5204749999999976
 13.4990300000000012 12.0674049999999990 13.3725049999999985
 11.5010000000000012 12.9326149999999984 11.6275049999999993
 13.0837000000000003 13.3991049999999987 13.3929549999999988
 11.9163500000000013 11.6008749999999985 11.6070149999999988
 13.2393600000000013 10.1295549999999999 12.4636149999999990
 11.7606600000000014 14.8704450000000001 12.5364049999999985
 14.2782200000000010 11.7299049999999987 14.0530449999999991
 10.7217800000000008 13.2701149999999988 10.9469649999999987
 13.5388699999999993 14.1004349999999992 14.0895049999999991
 11.4611300000000007 10.8995649999999991 10.9104949999999974
