 C  O  H                                
   1.0000000000000000     
    22.0000000000000000    0.0000000000000000    0.0000000000000000
     0.0000000000000000   22.0000000000000000    0.0000000000000000
     0.0000000000000000    0.0000000000000000   22.0000000000000000
   C    O    H 
     2     2     4
Direct
  0.2476153663107610  0.3204326380185023  0.3181601789991504
  0.3163730030146539  0.3201841564569321  0.3181914220278514
  0.3492930427467300  0.3643496889773488  0.3181929388183562
  0.3387751287390444  0.2613888740968875  0.3182193576955186
  0.2312597695004115  0.3670086015215048  0.3181394499457681
  0.2306788629036305  0.2964353212285147  0.2781891380761721
  0.2306427554651691  0.2964582675731080  0.3581296556436797
  0.3830366167741559  0.2645860884908373  0.3178751315207873

  0.00000000E+00  0.00000000E+00  0.00000000E+00
  0.00000000E+00  0.00000000E+00  0.00000000E+00
  0.00000000E+00  0.00000000E+00  0.00000000E+00
  0.00000000E+00  0.00000000E+00  0.00000000E+00
  0.00000000E+00  0.00000000E+00  0.00000000E+00
  0.00000000E+00  0.00000000E+00  0.00000000E+00
  0.00000000E+00  0.00000000E+00  0.00000000E+00
  0.00000000E+00  0.00000000E+00  0.00000000E+00
