 C  O  H                                
   1.0000000000000000     
    22.0000000000000000    0.0000000000000000    0.0000000000000000
     0.0000000000000000   22.0000000000000000    0.0000000000000000
     0.0000000000000000    0.0000000000000000   22.0000000000000000
   C    O    H 
     2     2     4
Direct
  0.2476153663107629  0.3204326380185005  0.3181601789991489
  0.3163730030146552  0.3201841564569312  0.3181914220278486
  0.3492930427467276  0.3643496889773486  0.3181929388183556
  0.3387751287390460  0.2613888740968854  0.3182193576955162
  0.2312597695004149  0.3670086015215036  0.3181394499457669
  0.2306788629036337  0.2964353212285167  0.2781891380761690
  0.2306427554651690  0.2964582675731081  0.3581296556436769
  0.3830366167741540  0.2645860884908344  0.3182387678844238

  0.00000000E+00  0.00000000E+00  0.00000000E+00
  0.00000000E+00  0.00000000E+00  0.00000000E+00
  0.00000000E+00  0.00000000E+00  0.00000000E+00
  0.00000000E+00  0.00000000E+00  0.00000000E+00
  0.00000000E+00  0.00000000E+00  0.00000000E+00
  0.00000000E+00  0.00000000E+00  0.00000000E+00
  0.00000000E+00  0.00000000E+00  0.00000000E+00
  0.00000000E+00  0.00000000E+00  0.00000000E+00
