 N  H 
 1.0000000000000000
     5.1288299596714584    0.0000000000000000    0.0000000000000000
     0.0000000000000000    5.1288299596714584    0.0000000000000000
     0.0000000000000000    0.0000000000000000    5.1288299596714584
 N   H  
   4  12
Selective dynamics
Cartesian
  1.0780451377350606  1.0780159919697518  1.0780620090398183   T   T   T
  3.6424601175707907  1.4864056572457724  4.0508666541515694   T   T   T
  4.0508497828468091  3.6424309718054819  1.4864516743158385   T   T   T
  1.4864348030110803  4.0508206370815039  3.6424769888755488   T   T   T
  1.9070423062043722  1.3981943263616632  0.5736847388166444   T   T   T
  1.3982234721269713  0.5736387217465779  1.9070591775091312   T   T   T
  0.5736678675118861  1.9070131604390639  1.3982403434317301   T   T   T
  4.4714572860401001  1.1662273228538609  4.5552439243747438   T   T   T
  3.9626384519626998  1.9907829274689466  3.2218694856822561   T   T   T
  3.1380828473476119  0.6574084887764602  3.7306883197596568   T   T   T
  3.7306714484548977  3.1380537015823058  0.6574545058465264   T   T   T
  4.5552270530699843  4.4714281402747940  1.1662733399239273   T   T   T
  1.9908120732342547  3.2218234686121883  3.9626553232674580   T   T   T
  0.6574376345417682  3.7306423026895899  3.1380997186523722   T   T   T
  1.1662564686191692  4.5551979073046764  4.4714741573448578   T   T   T
  3.2218526143774966  3.9626093061973928  1.9908289445390135   T   T   T
