 C  N  O  H 
        1.0000000000
  15.235865575770179   0.039962617721031  -0.044298125722034
   3.291036995730467  13.612368139685156   0.189085007603266
  -3.865387331732570  -1.949560377504058  14.156084654552680
   72   24   48  168
 Direct
   0.288958833509044   0.400658477523180   0.182530580823003
   0.622292166842378   0.400658477523180   0.182530580823003
   0.955625500175711   0.400658477523180   0.182530580823003
   0.288958833509044   0.900658477523180   0.182530580823003
   0.622292166842378   0.900658477523180   0.182530580823003
   0.955625500175711   0.900658477523180   0.182530580823003
   0.288958833509044   0.400658477523180   0.682530580823003
   0.622292166842378   0.400658477523180   0.682530580823003
   0.955625500175711   0.400658477523180   0.682530580823003
   0.288958833509044   0.900658477523180   0.682530580823003
   0.622292166842378   0.900658477523180   0.682530580823003
   0.955625500175711   0.900658477523180   0.682530580823003
   0.044384190138027   0.099331163818481   0.317472369444146
   0.377717523471360   0.099331163818481   0.317472369444146
   0.711050856804693   0.099331163818481   0.317472369444146
   0.044384190138027   0.599331163818481   0.317472369444146
   0.377717523471360   0.599331163818481   0.317472369444146
   0.711050856804693   0.599331163818481   0.317472369444146
   0.044384190138027   0.099331163818481   0.817472369444146
   0.377717523471360   0.099331163818481   0.817472369444146
   0.711050856804693   0.099331163818481   0.817472369444146
   0.044384190138027   0.599331163818481   0.817472369444146
   0.377717523471360   0.599331163818481   0.817472369444146
   0.711050856804693   0.599331163818481   0.817472369444146
   0.260775779776119   0.302729705993085   0.138389452181731
   0.594109113109452   0.302729705993085   0.138389452181731
   0.927442446442785   0.302729705993085   0.138389452181731
   0.260775779776119   0.802729705993085   0.138389452181731
   0.594109113109452   0.802729705993085   0.138389452181731
   0.927442446442785   0.802729705993085   0.138389452181731
   0.260775779776119   0.302729705993085   0.638389452181731
   0.594109113109452   0.302729705993085   0.638389452181731
   0.927442446442785   0.302729705993085   0.638389452181731
   0.260775779776119   0.802729705993085   0.638389452181731
   0.594109113109452   0.802729705993085   0.638389452181731
   0.927442446442785   0.802729705993085   0.638389452181731
   0.072567242830779   0.197259935759546   0.361613475170095
   0.405900576164113   0.197259935759546   0.361613475170095
   0.739233909497446   0.197259935759546   0.361613475170095
   0.072567242830779   0.697259935759546   0.361613475170095
   0.405900576164113   0.697259935759546   0.361613475170095
   0.739233909497446   0.697259935759546   0.361613475170095
   0.072567242830779   0.197259935759546   0.861613475170095
   0.405900576164113   0.197259935759546   0.861613475170095
   0.739233909497446   0.197259935759546   0.861613475170095
   0.072567242830779   0.697259935759546   0.861613475170095
   0.405900576164113   0.697259935759546   0.861613475170095
   0.739233909497446   0.697259935759546   0.861613475170095
   0.003663445274419   0.140533410434159   0.078133470158495
   0.336996778607752   0.140533410434159   0.078133470158495
   0.670330111941086   0.140533410434159   0.078133470158495
   0.003663445274419   0.640533410434159   0.078133470158495
   0.336996778607752   0.640533410434159   0.078133470158495
   0.670330111941086   0.640533410434159   0.078133470158495
   0.003663445274419   0.140533410434159   0.578133470158495
   0.336996778607752   0.140533410434159   0.578133470158495
   0.670330111941086   0.140533410434159   0.578133470158495
   0.003663445274419   0.640533410434159   0.578133470158495
   0.336996778607752   0.640533410434159   0.578133470158495
   0.670330111941086   0.640533410434159   0.578133470158495
   0.329679682298746   0.359456196028477   0.421869550311969
   0.663013015632079   0.359456196028477   0.421869550311969
   0.996346348965412   0.359456196028477   0.421869550311969
   0.329679682298746   0.859456196028477   0.421869550311969
   0.663013015632079   0.859456196028477   0.421869550311969
   0.996346348965412   0.859456196028477   0.421869550311969
   0.329679682298746   0.359456196028477   0.921869550311969
   0.663013015632079   0.359456196028477   0.921869550311969
   0.996346348965412   0.359456196028477   0.921869550311969
   0.329679682298746   0.859456196028477   0.921869550311969
   0.663013015632079   0.859456196028477   0.921869550311969
   0.996346348965412   0.859456196028477   0.921869550311969
   0.085934607960322   0.080834219168220   0.070768792302038
   0.419267941293655   0.080834219168220   0.070768792302038
   0.752601274626988   0.080834219168220   0.070768792302038
   0.085934607960322   0.580834219168220   0.070768792302038
   0.419267941293655   0.580834219168220   0.070768792302038
   0.752601274626988   0.580834219168220   0.070768792302038
   0.085934607960322   0.080834219168220   0.570768792302038
   0.419267941293655   0.080834219168220   0.570768792302038
   0.752601274626988   0.080834219168220   0.570768792302038
   0.085934607960322   0.580834219168220   0.570768792302038
   0.419267941293655   0.580834219168220   0.570768792302038
   0.752601274626988   0.580834219168220   0.570768792302038
   0.247408535195851   0.419155323603310   0.429234306278878
   0.580741868529184   0.419155323603310   0.429234306278878
   0.914075201862518   0.419155323603310   0.429234306278878
   0.247408535195851   0.919155323603310   0.429234306278878
   0.580741868529184   0.919155323603310   0.429234306278878
   0.914075201862518   0.919155323603310   0.429234306278878
   0.247408535195851   0.419155323603310   0.929234306278878
   0.580741868529184   0.419155323603310   0.929234306278878
   0.914075201862518   0.419155323603310   0.929234306278878
   0.247408535195851   0.919155323603310   0.929234306278878
   0.580741868529184   0.919155323603310   0.929234306278878
   0.914075201862518   0.919155323603310   0.929234306278878
   0.013396788540584   0.233320110629904   0.120840966733207
   0.346730121873917   0.233320110629904   0.120840966733207
   0.680063455207250   0.233320110629904   0.120840966733207
   0.013396788540584   0.733320110629904   0.120840966733207
   0.346730121873917   0.733320110629904   0.120840966733207
   0.680063455207250   0.733320110629904   0.120840966733207
   0.013396788540584   0.233320110629904   0.620840966733207
   0.346730121873917   0.233320110629904   0.620840966733207
   0.680063455207250   0.233320110629904   0.620840966733207
   0.013396788540584   0.733320110629904   0.620840966733207
   0.346730121873917   0.733320110629904   0.620840966733207
   0.680063455207250   0.733320110629904   0.620840966733207
   0.319946258600980   0.266669548794392   0.379161922857724
   0.653279591934313   0.266669548794392   0.379161922857724
   0.986612925267646   0.266669548794392   0.379161922857724
   0.319946258600980   0.766669548794392   0.379161922857724
   0.653279591934313   0.766669548794392   0.379161922857724
   0.986612925267646   0.766669548794392   0.379161922857724
   0.319946258600980   0.266669548794392   0.879161922857724
   0.653279591934313   0.266669548794392   0.879161922857724
   0.986612925267646   0.266669548794392   0.879161922857724
   0.319946258600980   0.766669548794392   0.879161922857724
   0.653279591934313   0.766669548794392   0.879161922857724
   0.986612925267646   0.766669548794392   0.879161922857724
   0.260855938598071   0.113976581386167   0.051283712126155
   0.594189271931404   0.113976581386167   0.051283712126155
   0.927522605264738   0.113976581386167   0.051283712126155
   0.260855938598071   0.613976581386167   0.051283712126155
   0.594189271931404   0.613976581386167   0.051283712126155
   0.927522605264738   0.613976581386167   0.051283712126155
   0.260855938598071   0.113976581386167   0.551283712126155
   0.594189271931404   0.113976581386167   0.551283712126155
   0.927522605264738   0.113976581386167   0.551283712126155
   0.260855938598071   0.613976581386167   0.551283712126155
   0.594189271931404   0.613976581386167   0.551283712126155
   0.927522605264738   0.613976581386167   0.551283712126155
   0.072487199677361   0.386012976221584   0.448719366373120
   0.405820533010694   0.386012976221584   0.448719366373120
   0.739153866344028   0.386012976221584   0.448719366373120
   0.072487199677361   0.886012976221584   0.448719366373120
   0.405820533010694   0.886012976221584   0.448719366373120
   0.739153866344028   0.886012976221584   0.448719366373120
   0.072487199677361   0.386012976221584   0.948719366373120
   0.405820533010694   0.386012976221584   0.948719366373120
   0.739153866344028   0.386012976221584   0.948719366373120
   0.072487199677361   0.886012976221584   0.948719366373120
   0.405820533010694   0.886012976221584   0.948719366373120
   0.739153866344028   0.886012976221584   0.948719366373120
   0.228527492205018   0.453944892038400   0.199389951372347
   0.561860825538351   0.453944892038400   0.199389951372347
   0.895194158871685   0.453944892038400   0.199389951372347
   0.228527492205018   0.953944892038400   0.199389951372347
   0.561860825538351   0.953944892038400   0.199389951372347
   0.895194158871685   0.953944892038400   0.199389951372347
   0.228527492205018   0.453944892038400   0.699389951372347
   0.561860825538351   0.453944892038400   0.699389951372347
   0.895194158871685   0.453944892038400   0.699389951372347
   0.228527492205018   0.953944892038400   0.699389951372347
   0.561860825538351   0.953944892038400   0.699389951372347
   0.895194158871685   0.953944892038400   0.699389951372347
   0.104815550305682   0.046044784091107   0.300613015079562
   0.438148883639015   0.046044784091107   0.300613015079562
   0.771482216972349   0.046044784091107   0.300613015079562
   0.104815550305682   0.546044784091107   0.300613015079562
   0.438148883639015   0.546044784091107   0.300613015079562
   0.771482216972349   0.546044784091107   0.300613015079562
   0.104815550305682   0.046044784091107   0.800613015079562
   0.438148883639015   0.046044784091107   0.800613015079562
   0.771482216972349   0.046044784091107   0.800613015079562
   0.104815550305682   0.546044784091107   0.800613015079562
   0.438148883639015   0.546044784091107   0.800613015079562
   0.771482216972349   0.546044784091107   0.800613015079562
   0.009474643801182   0.391719630024789   0.247561645095723
   0.342807977134515   0.391719630024789   0.247561645095723
   0.676141310467849   0.391719630024789   0.247561645095723
   0.009474643801182   0.891719630024789   0.247561645095723
   0.342807977134515   0.891719630024789   0.247561645095723
   0.676141310467849   0.891719630024789   0.247561645095723
   0.009474643801182   0.391719630024789   0.747561645095723
   0.342807977134515   0.391719630024789   0.747561645095723
   0.676141310467849   0.391719630024789   0.747561645095723
   0.009474643801182   0.891719630024789   0.747561645095723
   0.342807977134515   0.891719630024789   0.747561645095723
   0.676141310467849   0.891719630024789   0.747561645095723
   0.323868399564484   0.108269988577786   0.252441288852004
   0.657201732897817   0.108269988577786   0.252441288852004
   0.990535066231150   0.108269988577786   0.252441288852004
   0.323868399564484   0.608269988577786   0.252441288852004
   0.657201732897817   0.608269988577786   0.252441288852004
   0.990535066231150   0.608269988577786   0.252441288852004
   0.323868399564484   0.108269988577786   0.752441288852004
   0.657201732897817   0.108269988577786   0.752441288852004
   0.990535066231150   0.108269988577786   0.752441288852004
   0.323868399564484   0.608269988577786   0.752441288852004
   0.657201732897817   0.608269988577786   0.752441288852004
   0.990535066231150   0.608269988577786   0.752441288852004
   0.315158977308315   0.431083283297552   0.134188600499939
   0.648492310641649   0.431083283297552   0.134188600499939
   0.981825643974982   0.431083283297552   0.134188600499939
   0.315158977308315   0.931083283297552   0.134188600499939
   0.648492310641649   0.931083283297552   0.134188600499939
   0.981825643974982   0.931083283297552   0.134188600499939
   0.315158977308315   0.431083283297552   0.634188600499939
   0.648492310641649   0.431083283297552   0.634188600499939
   0.981825643974982   0.431083283297552   0.634188600499939
   0.315158977308315   0.931083283297552   0.634188600499939
   0.648492310641649   0.931083283297552   0.634188600499939
   0.981825643974982   0.931083283297552   0.634188600499939
   0.018184043955013   0.068906353701753   0.365814338961880
   0.351517377288346   0.068906353701753   0.365814338961880
   0.684850710621679   0.068906353701753   0.365814338961880
   0.018184043955013   0.568906353701753   0.365814338961880
   0.351517377288346   0.568906353701753   0.365814338961880
   0.684850710621679   0.568906353701753   0.365814338961880
   0.018184043955013   0.068906353701753   0.865814338961880
   0.351517377288346   0.068906353701753   0.865814338961880
   0.684850710621679   0.068906353701753   0.865814338961880
   0.018184043955013   0.568906353701753   0.865814338961880
   0.351517377288346   0.568906353701753   0.865814338961880
   0.684850710621679   0.568906353701753   0.865814338961880
   0.233945157878056   0.271650118898479   0.185825741476007
   0.567278491211389   0.271650118898479   0.185825741476007
   0.900611824544722   0.271650118898479   0.185825741476007
   0.233945157878056   0.771650118898479   0.185825741476007
   0.567278491211389   0.771650118898479   0.185825741476007
   0.900611824544722   0.771650118898479   0.185825741476007
   0.233945157878056   0.271650118898479   0.685825741476007
   0.567278491211389   0.271650118898479   0.685825741476007
   0.900611824544722   0.271650118898479   0.685825741476007
   0.233945157878056   0.771650118898479   0.685825741476007
   0.567278491211389   0.771650118898479   0.685825741476007
   0.900611824544722   0.771650118898479   0.685825741476007
   0.099397916500066   0.228339465961209   0.314177191767006
   0.432731249833399   0.228339465961209   0.314177191767006
   0.766064583166732   0.228339465961209   0.314177191767006
   0.099397916500066   0.728339465961209   0.314177191767006
   0.432731249833399   0.728339465961209   0.314177191767006
   0.766064583166732   0.728339465961209   0.314177191767006
   0.099397916500066   0.228339465961209   0.814177191767006
   0.432731249833399   0.228339465961209   0.814177191767006
   0.766064583166732   0.228339465961209   0.814177191767006
   0.099397916500066   0.728339465961209   0.814177191767006
   0.432731249833399   0.728339465961209   0.814177191767006
   0.766064583166732   0.728339465961209   0.814177191767006
   0.209542946238098   0.308838893445564   0.071508958633357
   0.542876279571432   0.308838893445564   0.071508958633357
   0.876209612904765   0.308838893445564   0.071508958633357
   0.209542946238098   0.808838893445564   0.071508958633357
   0.542876279571432   0.808838893445564   0.071508958633357
   0.876209612904765   0.808838893445564   0.071508958633357
   0.209542946238098   0.308838893445564   0.571508958633357
   0.542876279571432   0.308838893445564   0.571508958633357
   0.876209612904765   0.308838893445564   0.571508958633357
   0.209542946238098   0.808838893445564   0.571508958633357
   0.542876279571432   0.808838893445564   0.571508958633357
   0.876209612904765   0.808838893445564   0.571508958633357
   0.123800044373719   0.191150774444203   0.428493983933942
   0.457133377707053   0.191150774444203   0.428493983933942
   0.790466711040386   0.191150774444203   0.428493983933942
   0.123800044373719   0.691150774444203   0.428493983933942
   0.457133377707053   0.691150774444203   0.428493983933942
   0.790466711040386   0.691150774444203   0.428493983933942
   0.123800044373719   0.191150774444203   0.928493983933942
   0.457133377707053   0.191150774444203   0.928493983933942
   0.790466711040386   0.191150774444203   0.928493983933942
   0.123800044373719   0.691150774444203   0.928493983933942
   0.457133377707053   0.691150774444203   0.928493983933942
   0.790466711040386   0.691150774444203   0.928493983933942
   0.143833163624758   0.109309625249942   0.081944849685899
   0.477166496958092   0.109309625249942   0.081944849685899
   0.810499830291425   0.109309625249942   0.081944849685899
   0.143833163624758   0.609309625249942   0.081944849685899
   0.477166496958092   0.609309625249942   0.081944849685899
   0.810499830291425   0.609309625249942   0.081944849685899
   0.143833163624758   0.109309625249942   0.581944849685899
   0.477166496958092   0.109309625249942   0.581944849685899
   0.810499830291425   0.109309625249942   0.581944849685899
   0.143833163624758   0.609309625249942   0.581944849685899
   0.477166496958092   0.609309625249942   0.581944849685899
   0.810499830291425   0.609309625249942   0.581944849685899
   0.189509963991690   0.390679905904008   0.418058075545206
   0.522843297325023   0.390679905904008   0.418058075545206
   0.856176630658356   0.390679905904008   0.418058075545206
   0.189509963991690   0.890679905904008   0.418058075545206
   0.522843297325023   0.890679905904008   0.418058075545206
   0.856176630658356   0.890679905904008   0.418058075545206
   0.189509963991690   0.390679905904008   0.918058075545206
   0.522843297325023   0.390679905904008   0.918058075545206
   0.856176630658356   0.390679905904008   0.918058075545206
   0.189509963991690   0.890679905904008   0.918058075545206
   0.522843297325023   0.890679905904008   0.918058075545206
   0.856176630658356   0.890679905904008   0.918058075545206
   0.084332686352234   0.013195159544577   0.032131527598792
   0.417666019685567   0.013195159544577   0.032131527598792
   0.750999353018900   0.013195159544577   0.032131527598792
   0.084332686352234   0.513195159544577   0.032131527598792
   0.417666019685567   0.513195159544577   0.032131527598792
   0.750999353018900   0.513195159544577   0.032131527598792
   0.084332686352234   0.013195159544577   0.532131527598792
   0.417666019685567   0.013195159544577   0.532131527598792
   0.750999353018900   0.013195159544577   0.532131527598792
   0.084332686352234   0.513195159544577   0.532131527598792
   0.417666019685567   0.513195159544577   0.532131527598792
   0.750999353018900   0.513195159544577   0.532131527598792
   0.249010319731207   0.486794575476562   0.467871189116647
   0.582343653064541   0.486794575476562   0.467871189116647
   0.915676986397874   0.486794575476562   0.467871189116647
   0.249010319731207   0.986794575476562   0.467871189116647
   0.582343653064541   0.986794575476562   0.467871189116647
   0.915676986397874   0.986794575476562   0.467871189116647
   0.249010319731207   0.486794575476562   0.967871189116647
   0.582343653064541   0.486794575476562   0.967871189116647
   0.915676986397874   0.486794575476562   0.967871189116647
   0.249010319731207   0.986794575476562   0.967871189116647
   0.582343653064541   0.986794575476562   0.967871189116647
   0.915676986397874   0.986794575476562   0.967871189116647
