super cell
        1.0000000000
  13.173898337894286   0.000000000000000   0.000000000000000
   0.000000000000000  15.728020619257006   0.000000000000000
   0.000000000000000   0.000000000000000  12.427329589480085
   64   64  128
 Direct
   0.028942409260550   0.027895833100459   0.458647664926645
   0.528942409260550   0.027895833100459   0.458647664926645
   0.028942409260550   0.527895833100459   0.458647664926645
   0.528942409260550   0.527895833100459   0.458647664926645
   0.028942409260550   0.027895833100459   0.958647664926645
   0.528942409260550   0.027895833100459   0.958647664926645
   0.028942409260550   0.527895833100459   0.958647664926645
   0.528942409260550   0.527895833100459   0.958647664926645
   0.471057590746342   0.472104166882325   0.041352335030673
   0.971057590746342   0.472104166882325   0.041352335030673
   0.471057590746342   0.972104166882325   0.041352335030673
   0.971057590746342   0.972104166882325   0.041352335030673
   0.471057590746342   0.472104166882325   0.541352335030673
   0.971057590746342   0.472104166882325   0.541352335030673
   0.471057590746342   0.972104166882325   0.541352335030673
   0.971057590746342   0.972104166882325   0.541352335030673
   0.221057595756962   0.027895842686451   0.208647662910185
   0.721057595756962   0.027895842686451   0.208647662910185
   0.221057595756962   0.527895842686451   0.208647662910185
   0.721057595756962   0.527895842686451   0.208647662910185
   0.221057595756962   0.027895842686451   0.708647662910185
   0.721057595756962   0.027895842686451   0.708647662910185
   0.221057595756962   0.527895842686451   0.708647662910185
   0.721057595756962   0.527895842686451   0.708647662910185
   0.278942415627880   0.222104147504453   0.458647688547150
   0.778942415627880   0.222104147504453   0.458647688547150
   0.278942415627880   0.722104147504453   0.458647688547150
   0.778942415627880   0.722104147504453   0.458647688547150
   0.278942415627880   0.222104147504453   0.958647688547150
   0.778942415627880   0.222104147504453   0.958647688547150
   0.278942415627880   0.722104147504453   0.958647688547150
   0.778942415627880   0.722104147504453   0.958647688547150
   0.471057602174171   0.222104153784087   0.208647670213239
   0.971057602174171   0.222104153784087   0.208647670213239
   0.471057602174171   0.722104153784087   0.208647670213239
   0.971057602174171   0.722104153784087   0.208647670213239
   0.471057602174171   0.222104153784087   0.708647670213239
   0.971057602174171   0.222104153784087   0.708647670213239
   0.471057602174171   0.722104153784087   0.708647670213239
   0.971057602174171   0.722104153784087   0.708647670213239
   0.278942404285518   0.472104157308166   0.291352337082713
   0.778942404285518   0.472104157308166   0.291352337082713
   0.278942404285518   0.972104157308166   0.291352337082713
   0.778942404285518   0.972104157308166   0.291352337082713
   0.278942404285518   0.472104157308166   0.791352337082713
   0.778942404285518   0.472104157308166   0.791352337082713
   0.278942404285518   0.972104157308166   0.791352337082713
   0.778942404285518   0.972104157308166   0.791352337082713
   0.221057584414952   0.277895852491163   0.041352311444555
   0.721057584414952   0.277895852491163   0.041352311444555
   0.221057584414952   0.777895852491163   0.041352311444555
   0.721057584414952   0.777895852491163   0.041352311444555
   0.221057584414952   0.277895852491163   0.541352311444555
   0.721057584414952   0.277895852491163   0.541352311444555
   0.221057584414952   0.777895852491163   0.541352311444555
   0.721057584414952   0.777895852491163   0.541352311444555
   0.028942397868738   0.277895846199577   0.291352329760599
   0.528942397868738   0.277895846199577   0.291352329760599
   0.028942397868738   0.777895846199577   0.291352329760599
   0.528942397868738   0.777895846199577   0.291352329760599
   0.028942397868738   0.277895846199577   0.791352329760599
   0.528942397868738   0.277895846199577   0.791352329760599
   0.028942397868738   0.777895846199577   0.791352329760599
   0.528942397868738   0.777895846199577   0.791352329760599
   0.047975424184212   0.147349542604805   0.424788378689602
   0.547975424184212   0.147349542604805   0.424788378689602
   0.047975424184212   0.647349542604805   0.424788378689602
   0.547975424184212   0.647349542604805   0.424788378689602
   0.047975424184212   0.147349542604805   0.924788378689602
   0.547975424184212   0.147349542604805   0.924788378689602
   0.047975424184212   0.647349542604805   0.924788378689602
   0.547975424184212   0.647349542604805   0.924788378689602
   0.452024575831118   0.352650457382864   0.075211621283365
   0.952024575831118   0.352650457382864   0.075211621283365
   0.452024575831118   0.852650457382864   0.075211621283365
   0.952024575831118   0.852650457382864   0.075211621283365
   0.452024575831118   0.352650457382864   0.575211621283365
   0.952024575831118   0.352650457382864   0.575211621283365
   0.452024575831118   0.852650457382864   0.575211621283365
   0.952024575831118   0.852650457382864   0.575211621283365
   0.202024559833796   0.147349548413552   0.174788427191448
   0.702024559833796   0.147349548413552   0.174788427191448
   0.202024559833796   0.647349548413552   0.174788427191448
   0.702024559833796   0.647349548413552   0.174788427191448
   0.202024559833796   0.147349548413552   0.674788427191448
   0.702024559833796   0.147349548413552   0.674788427191448
   0.202024559833796   0.647349548413552   0.674788427191448
   0.702024559833796   0.647349548413552   0.674788427191448
   0.297975460456026   0.102650451219897   0.424788417886543
   0.797975460456026   0.102650451219897   0.424788417886543
   0.297975460456026   0.602650451219897   0.424788417886543
   0.797975460456026   0.602650451219897   0.424788417886543
   0.297975460456026   0.102650451219897   0.924788417886543
   0.797975460456026   0.102650451219897   0.924788417886543
   0.297975460456026   0.602650451219897   0.924788417886543
   0.797975460456026   0.602650451219897   0.924788417886543
   0.452024561815751   0.102650444634548   0.174788433840633
   0.952024561815751   0.102650444634548   0.174788433840633
   0.452024561815751   0.602650444634548   0.174788433840633
   0.952024561815751   0.602650444634548   0.174788433840633
   0.452024561815751   0.102650444634548   0.674788433840633
   0.952024561815751   0.102650444634548   0.674788433840633
   0.452024561815751   0.602650444634548   0.674788433840633
   0.952024561815751   0.602650444634548   0.674788433840633
   0.297975440211313   0.352650451579549   0.325211572806868
   0.797975440211313   0.352650451579549   0.325211572806868
   0.297975440211313   0.852650451579549   0.325211572806868
   0.797975440211313   0.852650451579549   0.325211572806868
   0.297975440211313   0.352650451579549   0.825211572806868
   0.797975440211313   0.352650451579549   0.825211572806868
   0.297975440211313   0.852650451579549   0.825211572806868
   0.797975440211313   0.852650451579549   0.825211572806868
   0.202024539578929   0.397349548767026   0.075211582121855
   0.702024539578929   0.397349548767026   0.075211582121855
   0.202024539578929   0.897349548767026   0.075211582121855
   0.702024539578929   0.897349548767026   0.075211582121855
   0.202024539578929   0.397349548767026   0.575211582121855
   0.702024539578929   0.397349548767026   0.575211582121855
   0.202024539578929   0.897349548767026   0.575211582121855
   0.702024539578929   0.897349548767026   0.575211582121855
   0.047975438220159   0.397349555345145   0.325211566145924
   0.547975438220159   0.397349555345145   0.325211566145924
   0.047975438220159   0.897349555345145   0.325211566145924
   0.547975438220159   0.897349555345145   0.325211566145924
   0.047975438220159   0.397349555345145   0.825211566145924
   0.547975438220159   0.397349555345145   0.825211566145924
   0.047975438220159   0.897349555345145   0.825211566145924
   0.547975438220159   0.897349555345145   0.825211566145924
   0.079840473384138   0.497975439627747   0.385451825300227
   0.579840473384138   0.497975439627747   0.385451825300227
   0.079840473384138   0.997975439627747   0.385451825300227
   0.579840473384138   0.997975439627747   0.385451825300227
   0.079840473384138   0.497975439627747   0.885451825300227
   0.579840473384138   0.497975439627747   0.885451825300227
   0.079840473384138   0.997975439627747   0.885451825300227
   0.579840473384138   0.997975439627747   0.885451825300227
   0.014487464959791   0.109823127110886   0.478874217013446
   0.514487464959791   0.109823127110886   0.478874217013446
   0.014487464959791   0.609823127110886   0.478874217013446
   0.514487464959791   0.609823127110886   0.478874217013446
   0.014487464959791   0.109823127110886   0.978874217013446
   0.514487464959791   0.109823127110886   0.978874217013446
   0.014487464959791   0.609823127110886   0.978874217013446
   0.514487464959791   0.609823127110886   0.978874217013446
   0.420159526631178   0.002024560356994   0.114548174665152
   0.920159526631178   0.002024560356994   0.114548174665152
   0.420159526631178   0.502024560356994   0.114548174665152
   0.920159526631178   0.502024560356994   0.114548174665152
   0.420159526631178   0.002024560356994   0.614548174665152
   0.920159526631178   0.002024560356994   0.614548174665152
   0.420159526631178   0.502024560356994   0.614548174665152
   0.920159526631178   0.502024560356994   0.614548174665152
   0.485512535040209   0.390176872873716   0.021125782945779
   0.985512535040209   0.390176872873716   0.021125782945779
   0.485512535040209   0.890176872873716   0.021125782945779
   0.985512535040209   0.890176872873716   0.021125782945779
   0.485512535040209   0.390176872873716   0.521125782945779
   0.985512535040209   0.390176872873716   0.521125782945779
   0.485512535040209   0.890176872873716   0.521125782945779
   0.985512535040209   0.890176872873716   0.521125782945779
   0.170159583792270   0.497975484960807   0.135451800378467
   0.670159583792270   0.497975484960807   0.135451800378467
   0.170159583792270   0.997975484960807   0.135451800378467
   0.670159583792270   0.997975484960807   0.135451800378467
   0.170159583792270   0.497975484960807   0.635451800378467
   0.670159583792270   0.497975484960807   0.635451800378467
   0.170159583792270   0.997975484960807   0.635451800378467
   0.670159583792270   0.997975484960807   0.635451800378467
   0.329840478560712   0.252024530300933   0.385451844513306
   0.829840478560712   0.252024530300933   0.385451844513306
   0.329840478560712   0.752024530300933   0.385451844513306
   0.829840478560712   0.752024530300933   0.385451844513306
   0.329840478560712   0.252024530300933   0.885451844513306
   0.829840478560712   0.252024530300933   0.885451844513306
   0.329840478560712   0.752024530300933   0.885451844513306
   0.829840478560712   0.752024530300933   0.885451844513306
   0.420159575902940   0.252024545169452   0.135451816644303
   0.920159575902940   0.252024545169452   0.135451816644303
   0.420159575902940   0.752024545169452   0.135451816644303
   0.920159575902940   0.752024545169452   0.135451816644303
   0.420159575902940   0.252024545169452   0.635451816644303
   0.920159575902940   0.252024545169452   0.635451816644303
   0.420159575902940   0.752024545169452   0.635451816644303
   0.920159575902940   0.752024545169452   0.635451816644303
   0.329840416247705   0.002024515039196   0.364548199616361
   0.829840416247705   0.002024515039196   0.364548199616361
   0.329840416247705   0.502024515039196   0.364548199616361
   0.829840416247705   0.502024515039196   0.364548199616361
   0.329840416247705   0.002024515039196   0.864548199616361
   0.829840416247705   0.002024515039196   0.864548199616361
   0.329840416247705   0.502024515039196   0.864548199616361
   0.829840416247705   0.502024515039196   0.864548199616361
   0.170159521477189   0.247975469693613   0.114548155475130
   0.670159521477189   0.247975469693613   0.114548155475130
   0.170159521477189   0.747975469693613   0.114548155475130
   0.670159521477189   0.747975469693613   0.114548155475130
   0.170159521477189   0.247975469693613   0.614548155475130
   0.670159521477189   0.247975469693613   0.614548155475130
   0.170159521477189   0.747975469693613   0.614548155475130
   0.670159521477189   0.747975469693613   0.614548155475130
   0.079840424145789   0.247975454814454   0.364548183325431
   0.579840424145789   0.247975454814454   0.364548183325431
   0.079840424145789   0.747975454814454   0.364548183325431
   0.579840424145789   0.747975454814454   0.364548183325431
   0.079840424145789   0.247975454814454   0.864548183325431
   0.579840424145789   0.247975454814454   0.864548183325431
   0.079840424145789   0.747975454814454   0.864548183325431
   0.579840424145789   0.747975454814454   0.864548183325431
   0.235512510940173   0.109823151925998   0.228874296295677
   0.735512510940173   0.109823151925998   0.228874296295677
   0.235512510940173   0.609823151925998   0.228874296295677
   0.735512510940173   0.609823151925998   0.228874296295677
   0.235512510940173   0.109823151925998   0.728874296295677
   0.735512510940173   0.109823151925998   0.728874296295677
   0.235512510940173   0.609823151925998   0.728874296295677
   0.735512510940173   0.609823151925998   0.728874296295677
   0.264487463832565   0.140176846499841   0.478874270903522
   0.764487463832565   0.140176846499841   0.478874270903522
   0.264487463832565   0.640176846499841   0.478874270903522
   0.764487463832565   0.640176846499841   0.478874270903522
   0.264487463832565   0.140176846499841   0.978874270903523
   0.764487463832565   0.140176846499841   0.978874270903523
   0.264487463832565   0.640176846499841   0.978874270903523
   0.764487463832565   0.640176846499841   0.978874270903523
   0.485512530901230   0.140176856992248   0.228874291499339
   0.985512530901230   0.140176856992248   0.228874291499339
   0.485512530901230   0.640176856992248   0.228874291499339
   0.985512530901230   0.640176856992248   0.228874291499339
   0.485512530901230   0.140176856992248   0.728874291499339
   0.985512530901230   0.140176856992248   0.728874291499339
   0.485512530901230   0.640176856992248   0.728874291499339
   0.985512530901230   0.640176856992248   0.728874291499339
   0.264487489113050   0.390176848068882   0.271125703697555
   0.764487489113050   0.390176848068882   0.271125703697555
   0.264487489113050   0.890176848068883   0.271125703697555
   0.764487489113050   0.890176848068883   0.271125703697555
   0.264487489113050   0.390176848068882   0.771125703697555
   0.764487489113050   0.390176848068882   0.771125703697555
   0.264487489113050   0.890176848068883   0.771125703697555
   0.764487489113050   0.890176848068883   0.771125703697555
   0.235512536208640   0.359823153497338   0.021125729096477
   0.735512536208640   0.359823153497338   0.021125729096477
   0.235512536208640   0.859823153497338   0.021125729096477
   0.735512536208640   0.859823153497338   0.021125729096477
   0.235512536208640   0.359823153497338   0.521125729096477
   0.735512536208640   0.359823153497338   0.521125729096477
   0.235512536208640   0.859823153497338   0.521125729096477
   0.735512536208640   0.859823153497338   0.521125729096477
   0.014487469134656   0.359823142991197   0.271125708483391
   0.514487469134656   0.359823142991197   0.271125708483391
   0.014487469134656   0.859823142991197   0.271125708483391
   0.514487469134656   0.859823142991197   0.271125708483391
   0.014487469134656   0.359823142991197   0.771125708483391
   0.514487469134656   0.359823142991197   0.771125708483391
   0.014487469134656   0.859823142991197   0.771125708483391
   0.514487469134656   0.859823142991197   0.771125708483391
