 C  N  H 
        1.0000000000
  15.152448506702290   0.000000000000000   0.187273910204326
   0.000000000000000  10.681205342581601   0.000000000000000
  -9.269015989577058   0.000000000000000  17.721472207269649
   96   64  128
 Direct
   0.078153432578225   0.109414638709133   0.089883048604340
   0.578153432578225   0.109414638709133   0.089883048604340
   0.078153432578225   0.609414638709133   0.089883048604340
   0.578153432578225   0.609414638709133   0.089883048604340
   0.078153432578225   0.109414638709133   0.589883048604339
   0.578153432578225   0.109414638709133   0.589883048604339
   0.078153432578225   0.609414638709133   0.589883048604339
   0.578153432578225   0.609414638709133   0.589883048604339
   0.421846605248059   0.390585361290865   0.410116956088854
   0.921846605248059   0.390585361290865   0.410116956088854
   0.421846605248059   0.890585361290865   0.410116956088854
   0.921846605248059   0.890585361290865   0.410116956088854
   0.421846605248059   0.390585361290865   0.910116956088854
   0.921846605248059   0.390585361290865   0.910116956088854
   0.421846605248059   0.890585361290865   0.910116956088854
   0.921846605248059   0.890585361290865   0.910116956088854
   0.421846605248057   0.359414638709132   0.160116956088852
   0.921846605248057   0.359414638709132   0.160116956088852
   0.421846605248057   0.859414638709132   0.160116956088852
   0.921846605248057   0.859414638709132   0.160116956088852
   0.421846605248057   0.359414638709132   0.660116956088852
   0.921846605248057   0.359414638709132   0.660116956088852
   0.421846605248057   0.859414638709132   0.660116956088852
   0.921846605248057   0.859414638709132   0.660116956088852
   0.078153432578226   0.140585361290866   0.339883048604341
   0.578153432578226   0.140585361290866   0.339883048604341
   0.078153432578226   0.640585361290866   0.339883048604341
   0.578153432578226   0.640585361290866   0.339883048604341
   0.078153432578226   0.140585361290866   0.839883048604341
   0.578153432578226   0.140585361290866   0.839883048604341
   0.078153432578226   0.640585361290866   0.839883048604341
   0.578153432578226   0.640585361290866   0.839883048604341
   0.155153263633401   0.276925888064192   0.148688564338885
   0.655153263633401   0.276925888064192   0.148688564338885
   0.155153263633401   0.776925888064192   0.148688564338885
   0.655153263633401   0.776925888064192   0.148688564338885
   0.155153263633401   0.276925888064192   0.648688564338885
   0.655153263633401   0.276925888064192   0.648688564338885
   0.155153263633401   0.776925888064192   0.648688564338885
   0.655153263633401   0.776925888064192   0.648688564338885
   0.344846774192883   0.223074111935807   0.351311440354307
   0.844846774192883   0.223074111935807   0.351311440354307
   0.344846774192883   0.723074111935807   0.351311440354307
   0.844846774192883   0.723074111935807   0.351311440354307
   0.344846774192883   0.223074111935807   0.851311440354307
   0.844846774192883   0.223074111935807   0.851311440354307
   0.344846774192883   0.723074111935807   0.851311440354307
   0.844846774192883   0.723074111935807   0.851311440354307
   0.344846774192881   0.026925888064192   0.101311440354306
   0.844846774192881   0.026925888064192   0.101311440354306
   0.344846774192881   0.526925888064192   0.101311440354306
   0.844846774192881   0.526925888064192   0.101311440354306
   0.344846774192881   0.026925888064192   0.601311440354306
   0.844846774192881   0.026925888064192   0.601311440354306
   0.344846774192881   0.526925888064192   0.601311440354306
   0.844846774192881   0.526925888064192   0.601311440354306
   0.155153263633402   0.473074111935806   0.398688564338887
   0.655153263633402   0.473074111935806   0.398688564338887
   0.155153263633402   0.973074111935806   0.398688564338887
   0.655153263633402   0.973074111935806   0.398688564338887
   0.155153263633402   0.473074111935806   0.898688564338887
   0.655153263633402   0.473074111935806   0.898688564338887
   0.155153263633402   0.973074111935806   0.898688564338887
   0.655153263633402   0.973074111935806   0.898688564338887
   0.158802003052594   0.276487629470402   0.081205247485345
   0.658802003052594   0.276487629470402   0.081205247485345
   0.158802003052594   0.776487629470402   0.081205247485345
   0.658802003052594   0.776487629470402   0.081205247485345
   0.158802003052594   0.276487629470402   0.581205247485345
   0.658802003052594   0.276487629470402   0.581205247485345
   0.158802003052594   0.776487629470402   0.581205247485345
   0.658802003052594   0.776487629470402   0.581205247485345
   0.341198034773690   0.223512370529597   0.418794757207848
   0.841198034773690   0.223512370529597   0.418794757207848
   0.341198034773690   0.723512370529596   0.418794757207848
   0.841198034773690   0.723512370529596   0.418794757207848
   0.341198034773690   0.223512370529597   0.918794757207848
   0.841198034773690   0.223512370529597   0.918794757207848
   0.341198034773690   0.723512370529596   0.918794757207848
   0.841198034773690   0.723512370529596   0.918794757207848
   0.341198034773688   0.026487629470403   0.168794757207847
   0.841198034773688   0.026487629470403   0.168794757207847
   0.341198034773688   0.526487629470403   0.168794757207847
   0.841198034773688   0.526487629470403   0.168794757207847
   0.341198034773688   0.026487629470403   0.668794757207847
   0.841198034773688   0.026487629470403   0.668794757207847
   0.341198034773688   0.526487629470403   0.668794757207847
   0.841198034773688   0.526487629470403   0.668794757207847
   0.158802003052594   0.473512370529594   0.331205247485345
   0.658802003052594   0.473512370529594   0.331205247485345
   0.158802003052594   0.973512370529594   0.331205247485345
   0.658802003052594   0.973512370529594   0.331205247485345
   0.158802003052594   0.473512370529594   0.831205247485345
   0.658802003052594   0.473512370529594   0.831205247485345
   0.158802003052594   0.973512370529594   0.831205247485345
   0.658802003052594   0.973512370529594   0.831205247485345
   0.109319702897450   0.169331275766539   0.044213567638517
   0.609319702897450   0.169331275766539   0.044213567638517
   0.109319702897450   0.669331275766539   0.044213567638517
   0.609319702897450   0.669331275766539   0.044213567638517
   0.109319702897450   0.169331275766539   0.544213567638517
   0.609319702897450   0.169331275766539   0.544213567638517
   0.109319702897450   0.669331275766539   0.544213567638517
   0.609319702897450   0.669331275766539   0.544213567638517
   0.390680334928834   0.330668724233460   0.455786437054675
   0.890680334928834   0.330668724233460   0.455786437054675
   0.390680334928834   0.830668724233460   0.455786437054675
   0.890680334928834   0.830668724233460   0.455786437054675
   0.390680334928834   0.330668724233460   0.955786437054675
   0.890680334928834   0.330668724233460   0.955786437054675
   0.390680334928834   0.830668724233460   0.955786437054675
   0.890680334928834   0.830668724233460   0.955786437054675
   0.390680334928832   0.419331275766538   0.205786437054675
   0.890680334928832   0.419331275766538   0.205786437054675
   0.390680334928832   0.919331275766538   0.205786437054675
   0.890680334928832   0.919331275766538   0.205786437054675
   0.390680334928832   0.419331275766538   0.705786437054675
   0.890680334928832   0.419331275766538   0.705786437054675
   0.390680334928832   0.919331275766538   0.705786437054675
   0.890680334928832   0.919331275766538   0.705786437054675
   0.109319702897451   0.080668724233461   0.294213567638518
   0.609319702897451   0.080668724233461   0.294213567638518
   0.109319702897451   0.580668724233461   0.294213567638518
   0.609319702897451   0.580668724233461   0.294213567638518
   0.109319702897451   0.080668724233461   0.794213567638518
   0.609319702897451   0.080668724233461   0.794213567638518
   0.109319702897451   0.580668724233461   0.794213567638518
   0.609319702897451   0.580668724233461   0.794213567638518
   0.104447572857136   0.171810961762548   0.153936088509132
   0.604447572857136   0.171810961762548   0.153936088509132
   0.104447572857136   0.671810961762548   0.153936088509132
   0.604447572857136   0.671810961762548   0.153936088509132
   0.104447572857136   0.171810961762548   0.653936088509132
   0.604447572857136   0.171810961762548   0.653936088509132
   0.104447572857136   0.671810961762548   0.653936088509132
   0.604447572857136   0.671810961762548   0.653936088509132
   0.395552464969146   0.328189038237451   0.346063916184061
   0.895552464969146   0.328189038237451   0.346063916184061
   0.395552464969146   0.828189038237451   0.346063916184061
   0.895552464969146   0.828189038237451   0.346063916184061
   0.395552464969146   0.328189038237451   0.846063916184061
   0.895552464969146   0.328189038237451   0.846063916184061
   0.395552464969146   0.828189038237451   0.846063916184061
   0.895552464969146   0.828189038237451   0.846063916184061
   0.395552464969146   0.421810961762548   0.096063916184060
   0.895552464969146   0.421810961762548   0.096063916184060
   0.395552464969146   0.921810961762548   0.096063916184060
   0.895552464969146   0.921810961762548   0.096063916184060
   0.395552464969146   0.421810961762548   0.596063916184060
   0.895552464969146   0.421810961762548   0.596063916184060
   0.395552464969146   0.921810961762548   0.596063916184060
   0.895552464969146   0.921810961762548   0.596063916184060
   0.104447572857138   0.078189038237451   0.403936088509134
   0.604447572857138   0.078189038237451   0.403936088509134
   0.104447572857138   0.578189038237451   0.403936088509134
   0.604447572857138   0.578189038237451   0.403936088509134
   0.104447572857138   0.078189038237451   0.903936088509134
   0.604447572857138   0.078189038237451   0.903936088509134
   0.104447572857138   0.578189038237451   0.903936088509134
   0.604447572857138   0.578189038237451   0.903936088509134
   0.101697624255747   0.138234687806438   0.492761298426076
   0.601697624255747   0.138234687806438   0.492761298426076
   0.101697624255747   0.638234687806438   0.492761298426076
   0.601697624255747   0.638234687806438   0.492761298426076
   0.101697624255747   0.138234687806438   0.992761298426076
   0.601697624255747   0.138234687806438   0.992761298426076
   0.101697624255747   0.638234687806438   0.992761298426076
   0.601697624255747   0.638234687806438   0.992761298426076
   0.398302413570538   0.361765312193561   0.007238706267118
   0.898302413570538   0.361765312193561   0.007238706267118
   0.398302413570538   0.861765312193560   0.007238706267118
   0.898302413570538   0.861765312193560   0.007238706267118
   0.398302413570538   0.361765312193561   0.507238706267118
   0.898302413570538   0.361765312193561   0.507238706267118
   0.398302413570538   0.861765312193560   0.507238706267118
   0.898302413570538   0.861765312193560   0.507238706267118
   0.398302413570537   0.388234687806437   0.257238706267119
   0.898302413570537   0.388234687806437   0.257238706267119
   0.398302413570537   0.888234687806437   0.257238706267119
   0.898302413570537   0.888234687806437   0.257238706267119
   0.398302413570537   0.388234687806437   0.757238706267119
   0.898302413570537   0.388234687806437   0.757238706267119
   0.398302413570537   0.888234687806437   0.757238706267119
   0.898302413570537   0.888234687806437   0.757238706267119
   0.101697624255745   0.111765312193561   0.242761298426073
   0.601697624255745   0.111765312193561   0.242761298426073
   0.101697624255745   0.611765312193561   0.242761298426073
   0.601697624255745   0.611765312193561   0.242761298426073
   0.101697624255745   0.111765312193561   0.742761298426073
   0.601697624255745   0.111765312193561   0.742761298426073
   0.101697624255745   0.611765312193561   0.742761298426073
   0.601697624255745   0.611765312193561   0.742761298426073
   0.037818801715295   0.022390389020155   0.075587762985519
   0.537818801715295   0.022390389020155   0.075587762985519
   0.037818801715295   0.522390389020155   0.075587762985519
   0.537818801715295   0.522390389020155   0.075587762985519
   0.037818801715295   0.022390389020155   0.575587762985519
   0.537818801715295   0.022390389020155   0.575587762985519
   0.037818801715295   0.522390389020155   0.575587762985519
   0.537818801715295   0.522390389020155   0.575587762985519
   0.462181236110988   0.477609610979842   0.424412241707674
   0.962181236110988   0.477609610979842   0.424412241707674
   0.462181236110988   0.977609610979842   0.424412241707674
   0.962181236110988   0.977609610979842   0.424412241707674
   0.462181236110988   0.477609610979842   0.924412241707674
   0.962181236110988   0.477609610979842   0.924412241707674
   0.462181236110988   0.977609610979842   0.924412241707674
   0.962181236110988   0.977609610979842   0.924412241707674
   0.462181236110988   0.272390389020154   0.174412241707672
   0.962181236110988   0.272390389020154   0.174412241707672
   0.462181236110988   0.772390389020154   0.174412241707672
   0.962181236110988   0.772390389020154   0.174412241707672
   0.462181236110988   0.272390389020154   0.674412241707672
   0.962181236110988   0.272390389020154   0.674412241707672
   0.462181236110988   0.772390389020154   0.674412241707672
   0.962181236110988   0.772390389020154   0.674412241707672
   0.037818801715296   0.227609610979844   0.325587762985520
   0.537818801715297   0.227609610979844   0.325587762985520
   0.037818801715296   0.727609610979844   0.325587762985520
   0.537818801715297   0.727609610979844   0.325587762985520
   0.037818801715296   0.227609610979844   0.825587762985520
   0.537818801715297   0.227609610979844   0.825587762985520
   0.037818801715296   0.727609610979844   0.825587762985520
   0.537818801715297   0.727609610979844   0.825587762985520
   0.185271181595870   0.345268889222337   0.193046496702325
   0.685271181595870   0.345268889222337   0.193046496702325
   0.185271181595870   0.845268889222337   0.193046496702325
   0.685271181595870   0.845268889222337   0.193046496702325
   0.185271181595870   0.345268889222337   0.693046496702325
   0.685271181595870   0.345268889222337   0.693046496702325
   0.185271181595870   0.845268889222337   0.693046496702325
   0.685271181595870   0.845268889222337   0.693046496702325
   0.314728856230413   0.154731110777662   0.306953507990869
   0.814728856230413   0.154731110777662   0.306953507990869
   0.314728856230413   0.654731110777662   0.306953507990869
   0.814728856230413   0.654731110777662   0.306953507990869
   0.314728856230413   0.154731110777662   0.806953507990869
   0.814728856230413   0.154731110777662   0.806953507990869
   0.314728856230413   0.654731110777662   0.806953507990869
   0.814728856230413   0.654731110777662   0.806953507990869
   0.314728856230412   0.095268889222337   0.056953507990868
   0.814728856230412   0.095268889222337   0.056953507990868
   0.314728856230412   0.595268889222337   0.056953507990868
   0.814728856230412   0.595268889222337   0.056953507990868
   0.314728856230412   0.095268889222337   0.556953507990868
   0.814728856230412   0.095268889222337   0.556953507990868
   0.314728856230412   0.595268889222337   0.556953507990868
   0.814728856230412   0.595268889222337   0.556953507990868
   0.185271181595871   0.404731110777661   0.443046496702325
   0.685271181595871   0.404731110777661   0.443046496702325
   0.185271181595871   0.904731110777661   0.443046496702325
   0.685271181595871   0.904731110777661   0.443046496702325
   0.185271181595871   0.404731110777661   0.943046496702325
   0.685271181595871   0.404731110777661   0.943046496702325
   0.185271181595871   0.904731110777661   0.943046496702325
   0.685271181595871   0.904731110777661   0.943046496702325
   0.191635368272393   0.340579577666452   0.057332558734373
   0.691635368272393   0.340579577666452   0.057332558734373
   0.191635368272393   0.840579577666452   0.057332558734373
   0.691635368272393   0.840579577666452   0.057332558734373
   0.191635368272393   0.340579577666452   0.557332558734373
   0.691635368272393   0.340579577666452   0.557332558734373
   0.191635368272393   0.840579577666452   0.557332558734373
   0.691635368272393   0.840579577666452   0.557332558734373
   0.308364669553890   0.159420422333546   0.442667445958819
   0.808364669553890   0.159420422333546   0.442667445958819
   0.308364669553890   0.659420422333546   0.442667445958819
   0.808364669553890   0.659420422333546   0.442667445958819
   0.308364669553890   0.159420422333546   0.942667445958819
   0.808364669553890   0.159420422333546   0.942667445958819
   0.308364669553890   0.659420422333546   0.942667445958819
   0.808364669553890   0.659420422333546   0.942667445958819
   0.308364669553889   0.090579577666453   0.192667445958819
   0.808364669553889   0.090579577666453   0.192667445958819
   0.308364669553889   0.590579577666453   0.192667445958819
   0.808364669553889   0.590579577666453   0.192667445958819
   0.308364669553889   0.090579577666453   0.692667445958819
   0.808364669553889   0.090579577666453   0.692667445958819
   0.308364669553889   0.590579577666453   0.692667445958819
   0.808364669553889   0.590579577666453   0.692667445958819
   0.191635368272394   0.409420422333545   0.307332558734374
   0.691635368272394   0.409420422333545   0.307332558734374
   0.191635368272394   0.909420422333545   0.307332558734374
   0.691635368272394   0.909420422333545   0.307332558734374
   0.191635368272394   0.409420422333545   0.807332558734374
   0.691635368272394   0.409420422333545   0.807332558734374
   0.191635368272394   0.909420422333545   0.807332558734374
   0.691635368272394   0.909420422333545   0.807332558734374
