 C  H  N 
 1.0000000000000000
    13.7119999999999997    0.0000000000000000    0.0000000000000000
     0.0000000000000000   13.2560000000000002    0.0000000000000000
     0.0000000000000000    0.0000000000000000   18.2940000000000005
 C   H   N  
  64 128 128
Cartesian
  0.9908407620608389  0.4927113830895656  2.1475042782150320
  5.8651590226229180  6.1353259237778692  6.9994961301496277
  2.4371602106061938  6.1353027222739200  6.7210253334136665
  4.4188542577170731  0.4927152930516577  2.4259872420844091
  5.8651527679357036  3.8067012328387966  2.4259472840367313
  0.9908450807765297  2.8213317845870112  6.7210524134483585
  4.4188103398680036  2.8213223894385968  6.9994463140175194
  2.4371777906221377  3.8066997918809489  2.1475746941016158
  0.9908407620608389  0.4927113830895656 11.2945042782150331
  5.8651590226229180  6.1353259237778692 16.1464961301496288
  2.4371602106061938  6.1353027222739200 15.8680253334136676
  4.4188542577170731  0.4927152930516577 11.5729872420844089
  5.8651527679357036  3.8067012328387966 11.5729472840367311
  0.9908450807765297  2.8213317845870112 15.8680524134483587
  4.4188103398680036  2.8213223894385968 16.1464463140175205
  2.4371777906221377  3.8066997918809489 11.2945746941016161
  0.9908407620608389  7.1207113830895663  2.1475042782150320
  5.8651590226229180 12.7633259237778702  6.9994961301496277
  2.4371602106061938 12.7633027222739219  6.7210253334136665
  4.4188542577170731  7.1207152930516591  2.4259872420844091
  5.8651527679357036 10.4347012328387994  2.4259472840367313
  0.9908450807765297  9.4493317845870113  6.7210524134483585
  4.4188103398680036  9.4493223894385974  6.9994463140175194
  2.4371777906221377 10.4346997918809485  2.1475746941016158
  0.9908407620608389  7.1207113830895663 11.2945042782150331
  5.8651590226229180 12.7633259237778702 16.1464961301496288
  2.4371602106061938 12.7633027222739219 15.8680253334136676
  4.4188542577170731  7.1207152930516591 11.5729872420844089
  5.8651527679357036 10.4347012328387994 11.5729472840367311
  0.9908450807765297  9.4493317845870113 15.8680524134483587
  4.4188103398680036  9.4493223894385974 16.1464463140175205
  2.4371777906221377 10.4346997918809485 11.2945746941016161
  7.8468407620608387  0.4927113830895656  2.1475042782150320
 12.7211590226229170  6.1353259237778692  6.9994961301496277
  9.2931602106061941  6.1353027222739200  6.7210253334136665
 11.2748542577170738  0.4927152930516577  2.4259872420844091
 12.7211527679357026  3.8067012328387966  2.4259472840367313
  7.8468450807765304  2.8213317845870112  6.7210524134483585
 11.2748103398680044  2.8213223894385968  6.9994463140175194
  9.2931777906221384  3.8066997918809489  2.1475746941016158
  7.8468407620608387  0.4927113830895656 11.2945042782150331
 12.7211590226229170  6.1353259237778692 16.1464961301496288
  9.2931602106061941  6.1353027222739200 15.8680253334136676
 11.2748542577170738  0.4927152930516577 11.5729872420844089
 12.7211527679357026  3.8067012328387966 11.5729472840367311
  7.8468450807765304  2.8213317845870112 15.8680524134483587
 11.2748103398680044  2.8213223894385968 16.1464463140175205
  9.2931777906221384  3.8066997918809489 11.2945746941016161
  7.8468407620608387  7.1207113830895663  2.1475042782150320
 12.7211590226229170 12.7633259237778702  6.9994961301496277
  9.2931602106061941 12.7633027222739219  6.7210253334136665
 11.2748542577170738  7.1207152930516591  2.4259872420844091
 12.7211527679357026 10.4347012328387994  2.4259472840367313
  7.8468450807765304  9.4493317845870113  6.7210524134483585
 11.2748103398680044  9.4493223894385974  6.9994463140175194
  9.2931777906221384 10.4346997918809485  2.1475746941016158
  7.8468407620608387  7.1207113830895663 11.2945042782150331
 12.7211590226229170 12.7633259237778702 16.1464961301496288
  9.2931602106061941 12.7633027222739219 15.8680253334136676
 11.2748542577170738  7.1207152930516591 11.5729872420844089
 12.7211527679357026 10.4347012328387994 11.5729472840367311
  7.8468450807765304  9.4493317845870113 15.8680524134483587
 11.2748103398680044  9.4493223894385974 16.1464463140175205
  9.2931777906221384 10.4346997918809485 11.2945746941016161
  1.4415571854199474  0.6705513869781351  0.1705877277422758
  5.4144398482031972  5.9574747354787121  8.9764125171019753
  1.9864854472956956  5.9574627076758704  4.7441410327272315
  4.8695101967305012  0.6705855677784061  4.4028737775623528
  5.4144796094479704  3.9845905291427735  4.4029152339068123
  1.4415167345794364  2.6434422993426159  4.7440847502118713
  4.8695358668579267  2.6434904203733605  8.9764134719533075
  1.9864560128917947  3.9845459549395335  0.1705865280466932
  0.3157137326110352  1.8718053719866434  0.8644028347463688
  6.5402875003140135  4.7562282865261674  8.2825917513187690
  3.1122350825057472  4.7562722109761157  5.4378817709208285
  3.7437595136799486  1.8717586548038381  3.7091056063948322
  6.5402834184738357  5.1857968608397398  3.7091209683007329
  0.3157124996859867  1.4422384029651509  5.4378794278159059
  3.7436763139229581  1.4422016102122248  8.2825826637344964
  3.1123234760121146  5.1858239978869589  0.8644191145807082
  1.4415571854199474  0.6705513869781351  9.3175877277422767
  5.4144398482031972  5.9574747354787121 18.1234125171019755
  1.9864854472956956  5.9574627076758704 13.8911410327272318
  4.8695101967305012  0.6705855677784061 13.5498737775623539
  5.4144796094479704  3.9845905291427735 13.5499152339068125
  1.4415167345794364  2.6434422993426159 13.8910847502118706
  4.8695358668579267  2.6434904203733605 18.1234134719533060
  1.9864560128917947  3.9845459549395335  9.3175865280466947
  0.3157137326110352  1.8718053719866434 10.0114028347463684
  6.5402875003140135  4.7562282865261674 17.4295917513187675
  3.1122350825057472  4.7562722109761157 14.5848817709208287
  3.7437595136799486  1.8717586548038381 12.8561056063948325
  6.5402834184738357  5.1857968608397398 12.8561209683007327
  0.3157124996859867  1.4422384029651509 14.5848794278159062
  3.7436763139229581  1.4422016102122248 17.4295826637344966
  3.1123234760121146  5.1858239978869589 10.0114191145807077
  1.4415571854199474  7.2985513869781347  0.1705877277422758
  5.4144398482031972 12.5854747354787122  8.9764125171019753
  1.9864854472956956 12.5854627076758714  4.7441410327272315
  4.8695101967305012  7.2985855677784057  4.4028737775623528
  5.4144796094479704 10.6125905291427731  4.4029152339068123
  1.4415167345794364  9.2714422993426151  4.7440847502118713
  4.8695358668579267  9.2714904203733610  8.9764134719533075
  1.9864560128917947 10.6125459549395362  0.1705865280466932
  0.3157137326110352  8.4998053719866427  0.8644028347463688
  6.5402875003140135 11.3842282865261666  8.2825917513187690
  3.1122350825057472 11.3842722109761159  5.4378817709208285
  3.7437595136799486  8.4997586548038377  3.7091056063948322
  6.5402834184738357 11.8137968608397408  3.7091209683007329
  0.3157124996859867  8.0702384029651508  5.4378794278159059
  3.7436763139229581  8.0702016102122247  8.2825826637344964
  3.1123234760121146 11.8138239978869581  0.8644191145807082
  1.4415571854199474  7.2985513869781347  9.3175877277422767
  5.4144398482031972 12.5854747354787122 18.1234125171019755
  1.9864854472956956 12.5854627076758714 13.8911410327272318
  4.8695101967305012  7.2985855677784057 13.5498737775623539
  5.4144796094479704 10.6125905291427731 13.5499152339068125
  1.4415167345794364  9.2714422993426151 13.8910847502118706
  4.8695358668579267  9.2714904203733610 18.1234134719533060
  1.9864560128917947 10.6125459549395362  9.3175865280466947
  0.3157137326110352  8.4998053719866427 10.0114028347463684
  6.5402875003140135 11.3842282865261666 17.4295917513187675
  3.1122350825057472 11.3842722109761159 14.5848817709208287
  3.7437595136799486  8.4997586548038377 12.8561056063948325
  6.5402834184738357 11.8137968608397408 12.8561209683007327
  0.3157124996859867  8.0702384029651508 14.5848794278159062
  3.7436763139229581  8.0702016102122247 17.4295826637344966
  3.1123234760121146 11.8138239978869581 10.0114191145807077
  8.2975571854199472  0.6705513869781351  0.1705877277422758
 12.2704398482031962  5.9574747354787121  8.9764125171019753
  8.8424854472956955  5.9574627076758704  4.7441410327272315
 11.7255101967305002  0.6705855677784061  4.4028737775623528
 12.2704796094479711  3.9845905291427735  4.4029152339068123
  8.2975167345794354  2.6434422993426159  4.7440847502118713
 11.7255358668579266  2.6434904203733605  8.9764134719533075
  8.8424560128917946  3.9845459549395335  0.1705865280466932
  7.1717137326110354  1.8718053719866434  0.8644028347463688
 13.3962875003140134  4.7562282865261674  8.2825917513187690
  9.9682350825057462  4.7562722109761157  5.4378817709208285
 10.5997595136799490  1.8717586548038381  3.7091056063948322
 13.3962834184738355  5.1857968608397398  3.7091209683007329
  7.1717124996859853  1.4422384029651509  5.4378794278159059
 10.5996763139229575  1.4422016102122248  8.2825826637344964
  9.9683234760121149  5.1858239978869589  0.8644191145807082
  8.2975571854199472  0.6705513869781351  9.3175877277422767
 12.2704398482031962  5.9574747354787121 18.1234125171019755
  8.8424854472956955  5.9574627076758704 13.8911410327272318
 11.7255101967305002  0.6705855677784061 13.5498737775623539
 12.2704796094479711  3.9845905291427735 13.5499152339068125
  8.2975167345794354  2.6434422993426159 13.8910847502118706
 11.7255358668579266  2.6434904203733605 18.1234134719533060
  8.8424560128917946  3.9845459549395335  9.3175865280466947
  7.1717137326110354  1.8718053719866434 10.0114028347463684
 13.3962875003140134  4.7562282865261674 17.4295917513187675
  9.9682350825057462  4.7562722109761157 14.5848817709208287
 10.5997595136799490  1.8717586548038381 12.8561056063948325
 13.3962834184738355  5.1857968608397398 12.8561209683007327
  7.1717124996859853  1.4422384029651509 14.5848794278159062
 10.5996763139229575  1.4422016102122248 17.4295826637344966
  9.9683234760121149  5.1858239978869589 10.0114191145807077
  8.2975571854199472  7.2985513869781347  0.1705877277422758
 12.2704398482031962 12.5854747354787122  8.9764125171019753
  8.8424854472956955 12.5854627076758714  4.7441410327272315
 11.7255101967305002  7.2985855677784057  4.4028737775623528
 12.2704796094479711 10.6125905291427731  4.4029152339068123
  8.2975167345794354  9.2714422993426151  4.7440847502118713
 11.7255358668579266  9.2714904203733610  8.9764134719533075
  8.8424560128917946 10.6125459549395362  0.1705865280466932
  7.1717137326110354  8.4998053719866427  0.8644028347463688
 13.3962875003140134 11.3842282865261666  8.2825917513187690
  9.9682350825057462 11.3842722109761159  5.4378817709208285
 10.5997595136799490  8.4997586548038377  3.7091056063948322
 13.3962834184738355 11.8137968608397408  3.7091209683007329
  7.1717124996859853  8.0702384029651508  5.4378794278159059
 10.5996763139229575  8.0702016102122247  8.2825826637344964
  9.9683234760121149 11.8138239978869581  0.8644191145807082
  8.2975571854199472  7.2985513869781347  9.3175877277422767
 12.2704398482031962 12.5854747354787122 18.1234125171019755
  8.8424854472956955 12.5854627076758714 13.8911410327272318
 11.7255101967305002  7.2985855677784057 13.5498737775623539
 12.2704796094479711 10.6125905291427731 13.5499152339068125
  8.2975167345794354  9.2714422993426151 13.8910847502118706
 11.7255358668579266  9.2714904203733610 18.1234134719533060
  8.8424560128917946 10.6125459549395362  9.3175865280466947
  7.1717137326110354  8.4998053719866427 10.0114028347463684
 13.3962875003140134 11.3842282865261666 17.4295917513187675
  9.9682350825057462 11.3842722109761159 14.5848817709208287
 10.5997595136799490  8.4997586548038377 12.8561056063948325
 13.3962834184738355 11.8137968608397408 12.8561209683007327
  7.1717124996859853  8.0702384029651508 14.5848794278159062
 10.5996763139229575  8.0702016102122247 17.4295826637344966
  9.9683234760121149 11.8138239978869581 10.0114191145807077
  0.9867891081945626  1.1012124287819720  0.9907771355289137
  5.8692130516693899  5.5268229868746959  8.1562204041656603
  2.4412317102980721  5.5268324293500450  5.5642778362092278
  4.4147743468229059  1.1012044473958271  3.5827246009167033
  5.8692301338985580  4.4152204897410661  3.5827323177037593
  0.9867705820302077  2.2128103616531680  5.5642692081375120
  4.4147747029712265  2.2128105808333922  8.1562219646301273
  2.4412110879256055  4.4152212226352070  0.9907930760429065
  1.0041880733423185  6.6093808744272078  3.2038181125348477
  5.8518087081947110  0.0186565590048052  5.9431805187401086
  2.4238164066457313  0.0185950373758935  7.7772781685695742
  4.4322098911201921  6.6094049626241071  1.3697422996247994
  5.8518334506887850  3.2953707464390045  1.3697415467489342
  1.0041624073419497  3.3326639587365197  7.7772578544597719
  4.4321781927520432  3.3325959523124116  5.9431483811149226
  2.4238459343295387  3.2953941974644656  3.2038655837769641
  0.9867891081945626  1.1012124287819720 10.1377771355289141
  5.8692130516693899  5.5268229868746959 17.3032204041656605
  2.4412317102980721  5.5268324293500450 14.7112778362092271
  4.4147743468229059  1.1012044473958271 12.7297246009167040
  5.8692301338985580  4.4152204897410661 12.7297323177037605
  0.9867705820302077  2.2128103616531680 14.7112692081375140
  4.4147747029712265  2.2128105808333922 17.3032219646301257
  2.4412110879256055  4.4152212226352070 10.1377930760429074
  1.0041880733423185  6.6093808744272078 12.3508181125348475
  5.8518087081947110  0.0186565590048052 15.0901805187401088
  2.4238164066457313  0.0185950373758935 16.9242781685695753
  4.4322098911201921  6.6094049626241071 10.5167422996248021
  5.8518334506887850  3.2953707464390045 10.5167415467489338
  1.0041624073419497  3.3326639587365197 16.9242578544597713
  4.4321781927520432  3.3325959523124116 15.0901483811149220
  2.4238459343295387  3.2953941974644656 12.3508655837769652
  0.9867891081945626  7.7292124287819730  0.9907771355289137
  5.8692130516693899 12.1548229868746969  8.1562204041656603
  2.4412317102980721 12.1548324293500460  5.5642778362092278
  4.4147743468229059  7.7292044473958272  3.5827246009167033
  5.8692301338985580 11.0432204897410688  3.5827323177037593
  0.9867705820302077  8.8408103616531690  5.5642692081375120
  4.4147747029712265  8.8408105808333914  8.1562219646301273
  2.4412110879256055 11.0432212226352071  0.9907930760429065
  1.0041880733423185 13.2373808744272079  3.2038181125348477
  5.8518087081947110  6.6466565590048052  5.9431805187401086
  2.4238164066457313  6.6465950373758949  7.7772781685695742
  4.4322098911201921 13.2374049626241064  1.3697422996247994
  5.8518334506887850  9.9233707464390051  1.3697415467489342
  1.0041624073419497  9.9606639587365198  7.7772578544597719
  4.4321781927520432  9.9605959523124117  5.9431483811149226
  2.4238459343295387  9.9233941974644662  3.2038655837769641
  0.9867891081945626  7.7292124287819730 10.1377771355289141
  5.8692130516693899 12.1548229868746969 17.3032204041656605
  2.4412317102980721 12.1548324293500460 14.7112778362092271
  4.4147743468229059  7.7292044473958272 12.7297246009167040
  5.8692301338985580 11.0432204897410688 12.7297323177037605
  0.9867705820302077  8.8408103616531690 14.7112692081375140
  4.4147747029712265  8.8408105808333914 17.3032219646301257
  2.4412110879256055 11.0432212226352071 10.1377930760429074
  1.0041880733423185 13.2373808744272079 12.3508181125348475
  5.8518087081947110  6.6466565590048052 15.0901805187401088
  2.4238164066457313  6.6465950373758949 16.9242781685695753
  4.4322098911201921 13.2374049626241064 10.5167422996248021
  5.8518334506887850  9.9233707464390051 10.5167415467489338
  1.0041624073419497  9.9606639587365198 16.9242578544597713
  4.4321781927520432  9.9605959523124117 15.0901483811149220
  2.4238459343295387  9.9233941974644662 12.3508655837769652
  7.8427891081945633  1.1012124287819720  0.9907771355289137
 12.7252130516693889  5.5268229868746959  8.1562204041656603
  9.2972317102980711  5.5268324293500450  5.5642778362092278
 11.2707743468229058  1.1012044473958271  3.5827246009167033
 12.7252301338985578  4.4152204897410661  3.5827323177037593
  7.8427705820302078  2.2128103616531680  5.5642692081375120
 11.2707747029712273  2.2128105808333922  8.1562219646301273
  9.2972110879256054  4.4152212226352070  0.9907930760429065
  7.8601880733423188  6.6093808744272078  3.2038181125348477
 12.7078087081947118  0.0186565590048052  5.9431805187401086
  9.2798164066457307  0.0185950373758935  7.7772781685695742
 11.2882098911201929  6.6094049626241071  1.3697422996247994
 12.7078334506887849  3.2953707464390045  1.3697415467489342
  7.8601624073419503  3.3326639587365197  7.7772578544597719
 11.2881781927520422  3.3325959523124116  5.9431483811149226
  9.2798459343295381  3.2953941974644656  3.2038655837769641
  7.8427891081945633  1.1012124287819720 10.1377771355289141
 12.7252130516693889  5.5268229868746959 17.3032204041656605
  9.2972317102980711  5.5268324293500450 14.7112778362092271
 11.2707743468229058  1.1012044473958271 12.7297246009167040
 12.7252301338985578  4.4152204897410661 12.7297323177037605
  7.8427705820302078  2.2128103616531680 14.7112692081375140
 11.2707747029712273  2.2128105808333922 17.3032219646301257
  9.2972110879256054  4.4152212226352070 10.1377930760429074
  7.8601880733423188  6.6093808744272078 12.3508181125348475
 12.7078087081947118  0.0186565590048052 15.0901805187401088
  9.2798164066457307  0.0185950373758935 16.9242781685695753
 11.2882098911201929  6.6094049626241071 10.5167422996248021
 12.7078334506887849  3.2953707464390045 10.5167415467489338
  7.8601624073419503  3.3326639587365197 16.9242578544597713
 11.2881781927520422  3.3325959523124116 15.0901483811149220
  9.2798459343295381  3.2953941974644656 12.3508655837769652
  7.8427891081945633  7.7292124287819730  0.9907771355289137
 12.7252130516693889 12.1548229868746969  8.1562204041656603
  9.2972317102980711 12.1548324293500460  5.5642778362092278
 11.2707743468229058  7.7292044473958272  3.5827246009167033
 12.7252301338985578 11.0432204897410688  3.5827323177037593
  7.8427705820302078  8.8408103616531690  5.5642692081375120
 11.2707747029712273  8.8408105808333914  8.1562219646301273
  9.2972110879256054 11.0432212226352071  0.9907930760429065
  7.8601880733423188 13.2373808744272079  3.2038181125348477
 12.7078087081947118  6.6466565590048052  5.9431805187401086
  9.2798164066457307  6.6465950373758949  7.7772781685695742
 11.2882098911201929 13.2374049626241064  1.3697422996247994
 12.7078334506887849  9.9233707464390051  1.3697415467489342
  7.8601624073419503  9.9606639587365198  7.7772578544597719
 11.2881781927520422  9.9605959523124117  5.9431483811149226
  9.2798459343295381  9.9233941974644662  3.2038655837769641
  7.8427891081945633  7.7292124287819730 10.1377771355289141
 12.7252130516693889 12.1548229868746969 17.3032204041656605
  9.2972317102980711 12.1548324293500460 14.7112778362092271
 11.2707743468229058  7.7292044473958272 12.7297246009167040
 12.7252301338985578 11.0432204897410688 12.7297323177037605
  7.8427705820302078  8.8408103616531690 14.7112692081375140
 11.2707747029712273  8.8408105808333914 17.3032219646301257
  9.2972110879256054 11.0432212226352071 10.1377930760429074
  7.8601880733423188 13.2373808744272079 12.3508181125348475
 12.7078087081947118  6.6466565590048052 15.0901805187401088
  9.2798164066457307  6.6465950373758949 16.9242781685695753
 11.2882098911201929 13.2374049626241064 10.5167422996248021
 12.7078334506887849  9.9233707464390051 10.5167415467489338
  7.8601624073419503  9.9606639587365198 16.9242578544597713
 11.2881781927520422  9.9605959523124117 15.0901483811149220
  9.2798459343295381  9.9233941974644662 12.3508655837769652
