 C  H  N 
 1.0000000000000000
    25.0000000000000000    0.0000000000000000    0.0000000000000000
     0.0000000000000000   25.0000000000000000    0.0000000000000000
     0.0000000000000000    0.0000000000000000   25.0000000000000000
 C   H   N  
   3   3   3
Cartesian
 11.4148399999999999 11.4114849999999990 12.4998699999999978
 13.2895000000000003 12.6489349999999980 12.4998699999999978
 11.2805000000000000 13.6537049999999986 12.4999299999999991
 14.3781499999999998 12.7144649999999988 12.4998100000000001
 10.9270199999999988 10.4360049999999980 12.4997899999999991
 10.6798900000000003 14.5639949999999985 12.4997999999999987
 12.7528299999999994 11.4232449999999979 12.4998799999999992
 10.6218499999999985 12.4890650000000001 12.4997899999999991
 12.6102099999999986 13.8017949999999985 12.5002099999999992
