 N  C  H 
 1.0000000000000000
    13.8500077458470230   -0.0000092652171440   -0.0000048041991450
    -0.0000087407619700   13.4707485634868878    0.0000034208813350
    -0.0000064986372970    0.0000026211051540   18.4038896830292593
 N   C   H  
 128  64 128
Cartesian
  1.0132744324504475  1.1559225916212061  0.9599081970257176
  7.9382783057766897  1.1559179576964713  0.9599057956312413
  1.0132700620046287  7.8912968740575895  0.9599099049931892
  7.9382739353579508  7.8912922394184601  0.9599075055189643
  1.0132711837754131  1.1559238997603474 10.1618530432254239
  7.9382750568137013  1.1559192678544181 10.1618506378338189
  1.0132668133220781  7.8912981820533892 10.1618547515913011
  7.9382706863537154  7.8912935497645620 10.1618523474224958
  5.9117217796389339  5.5794767030562582  8.2420398787875886
 12.8367256530386094  5.5794720647647136  8.2420374888877070
  5.9117174090413833 12.3148509853327095  8.2420415877658026
 12.8367212822037313 12.3148463477860446  8.2420391965138666
  5.9117185300687334  5.5794780139212179 17.4439847196262647
 12.8367224031133631  5.5794733778718948 17.4439823252701558
  5.9117141594761788 12.3148522964992075 17.4439864278870722
 12.8367180323375099 12.3148476605976160 17.4439840334589178
  2.4492204129015152  5.5794785398296307  5.5608822184810434
  9.3742242858573981  5.5794739061727414  5.5608798156451389
  2.4492160427421985 12.3148528199173874  5.5608839251714013
  9.3742199158894994 12.3148481864699431  5.5608815227543023
  2.4492171637375830  5.5794798492267228 14.7628270569956115
  9.3742210369677750  5.5794752151011400 14.7628246536725403
  2.4492127936375492 12.3148541292119429 14.7628287635914379
  9.3742166670317815 12.3148494951439851 14.7628263602955059
  4.4757757115488053  1.1559213528309418  3.6410655894042829
 11.4007795841206896  1.1559167214416075  3.6410631877946540
  4.4757713411890148  7.8912956343119784  3.6410672985116719
 11.4007752137194291  7.8912910032973702  3.6410648975594264
  4.4757724618947838  1.1559226650553491 12.8430104351461569
 11.4007763344861921  1.1559180343462949 12.8430080353176876
  4.4757680914791349  7.8912969466289127 12.8430121442661740
 11.4007719640445195  7.8912923163913122 12.8430097454225116
  5.9117240029111233  4.5236062971146627  3.6410664504823211
 12.8367278760659325  4.5236016627148476  3.6410640452386516
  5.9117196328612298 11.2589805798208129  3.6410681636735882
 12.8367235059567566 11.2589759452978058  3.6410657581821595
  5.9117207538093117  4.5236076089622221 12.8430112955886120
 12.8367246272634929  4.5236029765184318 12.8430088942703602
  5.9117163838128546 11.2589818917505369 12.8430130088233341
 12.8367202571418186 11.2589772590691251 12.8430106071743246
  1.0132727945709150  2.2117933365088911  5.5608818791818520
  7.9382766673783980  2.2117887015193940  5.5608794737910321
  1.0132684240452494  8.9471676175340420  5.5608835873645122
  7.9382722967930199  8.9471629827561241  5.5608811822194566
  1.0132695448563944  2.2117946454515880 14.7628267171554253
  7.9382734178995404  2.2117900117921021 14.7628243143552851
  1.0132651743217229  8.9471689262801384 14.7628284248766235
  7.9382690473628204  8.9471642929275550 14.7628260223638303
  4.4757751409517228  2.2117895162606844  8.2420386824271326
 11.4007790133050388  2.2117848835550507  8.2420362804027487
  4.4757707707592589  8.9471637989695605  8.2420403897977987
 11.4007746431555645  8.9471591663446777  8.2420379878296952
  4.4757718921034861  2.2117908284934233 17.4439835204334557
 11.4007757645147780  2.2117861957943203 17.4439811186659490
  4.4757675218718447  8.9471651111676120 17.4439852277795424
 11.4007713943409925  8.9471604785909182 17.4439828259855716
  2.4492227344914261  4.5236098931889330  0.9599096962415585
  9.3742266080097298  4.5236052600565442  0.9599072947476525
  2.4492183635125016 11.2589841722802042  0.9599114130049602
  9.3742222372504820 11.2589795401675357  0.9599090093642131
  2.4492194846795092  4.5236112023043660 10.1618545406022491
  9.3742233582154704  4.5236065690641780 10.1618521392582295
  2.4492151137778553 11.2589854816075352 10.1618562569905961
  9.3742189875301314 11.2589808494976591 10.1618538532906602
  1.0006151219721300  0.0412478267284240  3.1805856235497498
  7.9256189945697715  0.0412431901707324  3.1805832289029414
  1.0006107514672999  6.7766221107271516  3.1805873292201290
  7.9256146240668244  6.7766174731454250  3.1805849366445389
  1.0006118728336346  0.0412491297622935 12.3825304809209289
  7.9256157454206431  0.0412444996589574 12.3825280729602270
  1.0006075023353105  6.7766234131442848 12.3825321878785939
  7.9256113748926493  6.7766187836090053 12.3825297786654502
  5.9243821779073444  6.6941535782933759  6.0213633980023440
 12.8493860508047035  6.6941489339447982  6.0213610202015504
  5.9243778073862066 13.4295278617223754  6.0213651043262395
 12.8493816802493797 13.4295232190165343  6.0213627230913289
  5.9243789284717741  6.6941548901907577 15.2233082363424668
 12.8493828012682805  6.6941502523463932 15.2233058450617378
  5.9243745579173384 13.4295291751477706 15.2233099394927240
 12.8493784307148289 13.4295245367819671 15.2233075492665222
  2.4618788477968523  6.6941554931400855  7.7815586290683587
  9.3868827202698011  6.6941508646010028  7.7815562366777238
  2.4618744776881951 13.4295297672642757  7.7815603231193542
  9.3868783501205986 13.4295251428015092  7.7815579390806811
  2.4618755985479823  6.6941567994955866 16.9835034617048137
  9.3868794711106247  6.6941521697107573 16.9835010667579560
  2.4618712284437736 13.4295310735650641 16.9835051556248793
  9.3868751009626425 13.4295264474164888 16.9835027681189494
  4.4631183934414373  0.0412446333713675  1.4203890388324716
 11.3881222670516156  0.0412399906711636  1.4203866159257483
  4.4631140231480995  6.7766189124031877  1.4203907436029555
 11.3881178967747569  6.7766142712495405  1.4203883239016379
  4.4631151439027104  0.0412459504836155 10.6223338941484400
 11.3881190174819178  0.0412413102182596 10.6223314763431258
  4.4631107735974123  6.7766202296918001 10.6223355992725086
 11.3881146471983286  6.7766155913134050 10.6223331853901026
  5.9243892854860540  3.4089301302788395  1.4203897157071059
 12.8493931586058903  3.4089254855225919  1.4203872883498800
  5.9243849154328290 10.1443044150906072  1.4203914331913705
 12.8493887885722309 10.1442997708620428  1.4203890069239755
  5.9243860363510459  3.4089314459733031 10.6223345682173829
 12.8493899095438877  3.4089268075959098 10.6223321539968527
  5.9243816662839208 10.1443057304175444 10.6223362849219622
 12.8493855394886989 10.1443010926176385 10.6223338718974656
  1.0006072044467877  3.3264702984726249  7.7815582333490667
  7.9256110773910100  3.3264656633662617  7.7815558269824203
  1.0006028338712138 10.0618445760678785  7.7815599348514022
  7.9256067068432667 10.0618399433823456  7.7815575334082565
  1.0006039550200356  3.3264716036193329 16.9835030635149877
  7.9256078280237601  3.3264669731708909 16.9835006666823638
  1.0005995844255413 10.0618458804592397 16.9835047634484368
  7.9256034574821186 10.0618412526545473 16.9835023720103493
  4.4631107405648338  3.3264681141777843  6.0213630599397900
 11.3881146131844702  3.3264634906417303  6.0213606392250725
  4.4631063703627527 10.0618424006226803  6.0213647601710285
 11.3881102430188275 10.0618377768453087  6.0213623399213470
  4.4631074914001925  3.3264694299584785 15.2233078902799726
 11.3881113641113707  3.3264648070273695 15.2233054682697713
  4.4631031212102634 10.0618437168917083 15.2233095894854173
 11.3881069939546631 10.0618390938363760 15.2233071676918517
  2.4618848749058397  3.4089324751039327  3.1805858394363060
  9.3868887476324954  3.4089278387358779  3.1805834451207815
  2.4618805042108822 10.1443067503706104  3.1805875638838219
  9.3868843769239874 10.1443021134022633  3.1805851708565882
  2.4618816254257614  3.4089337821185142 12.3825306885632678
  9.3868854982270094  3.4089291449229466 12.3825282959066261
  2.4618772547285142 10.1443080576368079 12.3825324124833003
  9.3868811275178761 10.1443034197974331 12.3825300212095595
  0.9944969259947146  0.5475722068316298  2.1259154966803995
  7.9195007994981337  0.5475675783547455  2.1259130858317428
  0.9944925558009150  7.2829464853715482  2.1259172137739171
  7.9194964293866219  7.2829418585706369  2.1259147995848195
  0.9944936761947096  0.5475735274293827 11.3278603173159524
  7.9194975497793649  0.5475688904122978 11.3278579238721857
  0.9944893060021973  7.2829478067686244 11.3278620327550694
  7.9194931797038528  7.2829431694324942 11.3278596400884375
  5.9305000856769157  6.1878278695221338  7.0760329194487168
 12.8555039586805098  6.1878232540503095  7.0760304826969520
  5.9304957155384850 12.9232021487826216  7.0760346356784440
 12.8554995886287831 12.9231975309910059  7.0760322036751964
  5.9304968366446333  6.1878291782078403 16.2779777651158994
 12.8555007097512259  6.1878245539979133 16.2779753462078887
  5.9304924665403327 12.9232034555265152 16.2779794853630477
 12.8554963396928539 12.9231988318426456 16.2779770653538449
  2.4679980400574246  6.1878298992539431  6.7268891297741717
  9.3930019141204113  6.1878252617661591  6.7268867171737803
  2.4679936693347129 12.9232041908502051  6.7268908611245859
  9.3929975434048476 12.9231995486142139  6.7268884389842691
  2.4679947904501760  6.1878312154420856 15.9288339832541581
  9.3929986644694434  6.1878265794909124 15.9288315738146729
  2.4679904197197979 12.9232055071362240 15.9288357147943493
  9.3929942937507978 12.9232008670856597 15.9288332971187216
  4.4569994717207617  0.5475708427981204  2.4750582463460344
 11.3820033438152084  0.5475662211082557  2.4750558673691985
  4.4569951010894275  7.2829451279013275  2.4750599638513591
 11.3819989732004956  7.2829405041965609  2.4750575808280946
  4.4569962228647340  0.5475721447585435 11.6770030697039111
 11.3820000949928808  0.5475675197990290 11.6770006839141498
  4.4569918522470120  7.2829464296460902 11.6770047867730487
 11.3819957244050798  7.2829418021992751 11.6770023959578904
  5.9305043117135519  3.9152550421534378  2.4750596069220574
 12.8555081846366850  3.9152504238432764  2.4750572349073288
  5.9304999408716697 10.6506293194953141  2.4750613074429659
 12.8555038138058340 10.6506247007040908  2.4750589344063592
  5.9305010619296112  3.9152563458192819 11.6770044337201284
 12.8555049347931263  3.9152517191806693 11.6770020445614549
  5.9304966911040191 10.6506306235563670 11.6770061350987646
 12.8555005639776692 10.6506259964127725 11.6770037448505253
  0.9944920133480427  2.8201447556948964  6.7268886231164666
  7.9194958854770210  2.8201401263710415  6.7268862277945871
  0.9944876433145430  9.5555190427914596  6.7268903450057849
  7.9194915154481302  9.5555144106783132  6.7268879439523142
  0.9944887643114749  2.8201460733424657 15.9288334796438420
  7.9194926363823948  2.8201414380415808 15.9288310720194737
  0.9944843942821342  9.5555203614258009 15.9288352035559324
  7.9194882663432535  9.5555157230501528 15.9288327896169211
  4.4569947321207755  2.8201414397045932  7.0760319778834244
 11.3819986051471957  2.8201367972364899  7.0760295966045899
  4.4569903612759987  9.5555157152153658  7.0760337016483454
 11.3819942343357230  9.5555110730042738  7.0760313198751756
  4.4569914824361874  2.8201427431368185 16.2779768342605884
 11.3819953554526734  2.8201381001032622 16.2779744542512859
  4.4569871115738620  9.5555170181048457 16.2779785591741053
 11.3819909846146849  9.5555123751543594 16.2779761790122883
  2.4680021815942541  3.9152585495757681  2.1259166137464405
  9.3930060536325168  3.9152539208954975  2.1259142029672611
  2.4679978116447066 10.6506328406692905  2.1259183043417380
  9.3930016837992323 10.6506282119539346  2.1259158933929445
  2.4679989326363549  3.9152598651071648 11.3278614448241779
  9.3930028047185701  3.9152552374514351 11.3278590320089236
  2.4679945626832831 10.6506341557972757 11.3278631362214703
  9.3929984348946327 10.6506295280494800 11.3278607233251503
  1.4406240094689062  0.6975382135939148  0.1512381806466329
  8.3656278820397407  0.6975335811896141  0.1512357790853987
  1.4406196388361929  7.4329124958332313  0.1512398915247528
  8.3656235115949720  7.4329078631707244  0.1512374894636743
  1.4406207602096583  0.6975395239712439  9.3531830223886629
  8.3656246328284194  0.6975348917597696  9.3531806207992396
  1.4406163895953290  7.4329138061634978  9.3531847332356044
  8.3656202624167957  7.4329091737091995  9.3531823310814186
  5.4843732019919296  6.0378619516802043  9.0507098682223202
 12.4093770752046861  6.0378573181156270  9.0507074646967123
  5.4843688315398413 12.7732362334394836  9.0507115785013159
 12.4093727047665325 12.7732315999172847  9.0507091749940134
  5.4843699526068281  6.0378632622091724 18.2526547095281941
 12.4093738257959494  6.0378586288584390 18.2526523060601313
  5.4843655821954309 12.7732375439725789 18.2526564197130838
 12.4093694553657983 12.7732329106305524 18.2526540163192763
  2.0218731530460823  6.0378643694199736  4.7522117259697616
  8.9468770261433459  6.0378597366418489  4.7522093250501163
  2.0218687825075796 12.7732386511926936  4.7522134358099297
  8.9468726558656400 12.7732340182914967  4.7522110354280569
  2.0218699038018046  6.0378656797686423 13.9541565674450485
  8.9468737767687383  6.0378610470772669 13.9541541663478590
  2.0218655332684992 12.7732399615352179 13.9541582773001931
  8.9468694065029268 12.7732353286964653 13.9541558767527611
  4.9031237594069559  0.6975361514676550  4.4497358736516697
 11.8281276318585977  0.6975315194300208  4.4497334698111715
  4.9031193890519518  7.4329104329819815  4.4497375839981341
 11.8281232616139462  7.4329058008791344  4.4497351802982159
  4.9031205100619442  0.6975374622376406 13.6516807152832254
 11.8281243824306195  0.6975328303512195 13.6516783113266751
  4.9031161397493381  7.4329117437013519 13.6516824257049585
 11.8281200121933576  7.4329071117990795 13.6516800218100141
  5.4843737941059771  4.0652222743560547  4.4497362893227530
 12.4093776676897303  4.0652176418654697  4.4497338858128543
  5.4843694238505245 10.8005965562580482  4.4497379998538964
 12.4093732973601512 10.8005919237377981  4.4497355964875496
  5.4843705448775939  4.0652235851351373 13.6516811309032668
 12.4093744183793806  4.0652189527900591 13.6516787274540743
  5.4843661746522301 10.8005978670637148 13.6516828413528994
 12.4093700480723541 10.8005932346874758 13.6516804380754824
  1.4406224747552181  2.6701780954119094  4.7522122131225037
  8.3656263476005162  2.6701734626086497  4.7522098116114977
  1.4406181043262285  9.4055523768540290  4.7522139233565097
  8.3656219769867626  9.4055477439499064  4.7522115222720691
  1.4406192254743673  2.6701794057854817 13.9541570544784772
  8.3656230982046011  2.6701747730573113 13.9541546531154346
  1.4406148550373929  9.4055536871965764 13.9541587647164853
  8.3656187275505776  9.4055490543357880 13.9541563638311068
  4.9031218024217944  2.6701763289327625  9.0507088781480611
 11.8281256746313606  2.6701716959191768  9.0507064745316015
  4.9031174321954030  9.4055506110498293  9.0507105885915546
 11.8281213044067037  9.4055459780208128  9.0507081849228488
  4.9031185532069754  2.6701776396281405 18.2526537195752745
 11.8281224253406467  2.6701730065429743 18.2526513157003620
  4.9031141829617386  9.4055519217339683 18.2526554299412496
 11.8281180550827880  9.4055472886260905 18.2526530260121795
  2.0218739220749802  4.0652237356762990  0.1512402839370167
  8.9468777951263387  4.0652191029743099  0.1512378821165921
  2.0218695514384422 10.8005980170539910  0.1512419940025961
  8.9468734247478796 10.8005933846371125  0.1512395929455716
  2.0218706725914908  4.0652250460988677  9.3531851254673803
  8.9468745457248211  4.0652204134277721  9.3531827237449203
  2.0218663019856082 10.8005993275252283  9.3531868356262535
  8.9468701753774198 10.8005946951372671  9.3531844346760380
  0.3475396746556279  1.9151765556130129  0.8106143594836565
  7.2725435476367766  1.9151719226948725  0.8106119570257736
  0.3475353044171791  8.6505508372727888  0.8106160698143762
  7.2725391770667507  8.6505462046720165  0.8106136671932201
  0.3475364249646508  1.9151778663909442 10.0125592013421620
  7.2725402981836700  1.9151732334303304 10.0125567987544937
  0.3475320547077394  8.6505521480429408 10.0125609116848597
  7.2725359275890762  8.6505475154424492 10.0125585088976230
  6.5774581293171162  4.8202241862019095  8.3913342736766854
 13.5024620011959904  4.8202195546599791  8.3913318707747386
  6.5774537589869828 11.5555984679095864  8.3913359840501638
 13.5024576310242566 11.5555938362437498  8.3913335811307217
  6.5774548800121861  4.8202254967373337 17.5932791150322174
 13.5024587522368709  4.8202208650249290 17.5932767120717628
  6.5774505096303146 11.5555997785593618 17.5932808253488524
 13.5024543819990779 11.5555951466638529 17.5932784224010348
  3.1149582371269893  4.8202272442341831  5.4115883148006745
 10.0399621093610580  4.8202226123985925  5.4115859137460856
  3.1149538668706014 11.5556015256650912  5.4115900249541351
 10.0399577387225545 11.5555968944372616  5.4115876241308207
  3.1149549877189555  4.8202285547869943 14.6135331561506376
 10.0399588598073244  4.8202239230219410 14.6135307551053462
  3.1149506173910972 11.5556028362828460 14.6135348663152147
 10.0399544891082950 11.5555982050998196 14.6135324654872036
  3.8100392626683894  1.9151738004043077  3.7903599145921238
 10.7350431368401935  1.9151691659562649  3.7903575109813779
  3.8100348924941976  8.6505480818393643  3.7903616248105609
 10.7350387666129183  8.6505434475531384  3.7903592212491954
  3.8100360135494209  1.9151751108894177 12.9923047563028327
 10.7350398877239837  1.9151704764713113 12.9923023527186690
  3.8100316433858947  8.6505493923308237 12.9923064665195991
 10.7350355175308749  8.6505447580483352 12.9923040629784445
  6.5774596939965093  5.2828592528979135  3.7903610990254171
 13.5024635660819090  5.2828546192743744  3.7903586968801841
  6.5774553234728375 12.0182335345039260  3.7903628096631192
 13.5024591956764297 12.0182289010516996  3.7903604075815558
  6.5774564446030386  5.2828605634829735 12.9923059407181771
 13.5024603164601213  5.2828559297730493 12.9923035386596588
  6.5774520739692903 12.0182348449613059 12.9923076513222799
 13.5024559460219766 12.0182302115213950 12.9923052493458719
  0.3475367576749086  1.4525408229569590  5.4115866697638157
  7.2725406312874519  1.4525361907032102  5.4115842682048614
  0.3475323870760851  8.1879151043957084  5.4115883799118381
  7.2725362609517834  8.1879104725659424  5.4115859784758733
  0.3475335086240620  1.4525421336317845 14.6135315111425665
  7.2725373821133443  1.4525375013881712 14.6135291096506137
  0.3475291380420495  8.1879164150669972 14.6135332212730393
  7.2725330117686431  8.1879117832173751 14.6135308199271670
  3.8100367990881758  1.4525390540536589  8.3913340624331560
 10.7350406732430894  1.4525344228924075  8.3913316602215051
  3.8100324288108962  8.1879133360018201  8.3913357726245970
 10.7350363029557716  8.1879087047863219  8.3913333704068904
  3.8100335495231192  1.4525403644471371 17.5932789037473327
 10.7350374237233588  1.4525357333622966 17.5932765014656773
  3.8100291793329770  8.1879146465011008 17.5932806139023477
 10.7350330535113567  8.1879100153625135 17.5932782116245932
  3.1149595386151225  5.2828618719967055  0.8106146141582771
 10.0399634111370304  5.2828572383426922  0.8106122114861916
  3.1149551687454178 12.0182361542559342  0.8106163246550721
 10.0399590406668402 12.0182315199244787  0.8106139222760809
  3.1149562896527061  5.2828631829082955 10.0125594558396553
 10.0399601620912584  5.2828585491337234 10.0125570532680417
  3.1149519196633801 12.0182374650463721 10.0125611663728620
 10.0399557915025923 12.0182328305944388 10.0125587640982339
