 C  H  N  O 
 1.0000000000000000
    11.1300000000000008    0.0000000000000000    0.0000000000000000
     0.0000000000000000   11.1300000000000008    0.0000000000000000
     0.0000000000000000    0.0000000000000000    9.3680000000000003
 C   H   N   O  
  16  64  32  16
Cartesian
  0.0000008150299099  2.3769426811681038  1.5272588205895523
  2.7824996127419239  5.1594389895729575  3.1567421041602097
  0.0000008150299099  2.3769426811681038  6.2112588205895527
  2.7824996127419239  5.1594389895729575  7.8407421041602099
  0.0000008150299099  7.9419426811681051  1.5272588205895523
  2.7824996127419239 10.7244389895729579  3.1567421041602097
  0.0000008150299099  7.9419426811681051  6.2112588205895527
  2.7824996127419239 10.7244389895729579  7.8407421041602099
  5.5650008150299106  2.3769426811681038  1.5272588205895523
  8.3474996127419239  5.1594389895729575  3.1567421041602097
  5.5650008150299106  2.3769426811681038  6.2112588205895527
  8.3474996127419239  5.1594389895729575  7.8407421041602099
  5.5650008150299106  7.9419426811681051  1.5272588205895523
  8.3474996127419239 10.7244389895729579  3.1567421041602097
  5.5650008150299106  7.9419426811681051  6.2112588205895527
  8.3474996127419239 10.7244389895729579  7.8407421041602099
  1.4473777815858984  3.8243289029088512  1.3252522067861967
  4.1176200144814707  0.9295518696026412  1.3252528642615293
  4.2298779823728543  3.7120516930764977  3.3587462704246178
  1.3351209737622425  1.0418282966302685  3.3587459395564494
  0.8111177265971982  3.1880597588632549  4.4931752315012874
  4.7538802467808221  1.5658212986377489  4.4931742913020383
  3.5936185691203364  4.3483203110253070  0.1908251993348906
  1.9713796741334078  0.4055604307743812  0.1908247684987129
  1.4473777815858984  3.8243289029088512  6.0092522067861971
  4.1176200144814707  0.9295518696026412  6.0092528642615299
  4.2298779823728543  3.7120516930764977  8.0427462704246189
  1.3351209737622425  1.0418282966302685  8.0427459395564505
  0.8111177265971982  3.1880597588632549  9.1771752315012876
  4.7538802467808221  1.5658212986377489  9.1771742913020375
  3.5936185691203364  4.3483203110253070  4.8748251993348894
  1.9713796741334078  0.4055604307743812  4.8748247684987129
  1.4473777815858984  9.3893289029088507  1.3252522067861967
  4.1176200144814707  6.4945518696026419  1.3252528642615293
  4.2298779823728543  9.2770516930764995  3.3587462704246178
  1.3351209737622425  6.6068282966302689  3.3587459395564494
  0.8111177265971982  8.7530597588632553  4.4931752315012874
  4.7538802467808221  7.1308212986377502  4.4931742913020383
  3.5936185691203364  9.9133203110253074  0.1908251993348906
  1.9713796741334078  5.9705604307743814  0.1908247684987129
  1.4473777815858984  9.3893289029088507  6.0092522067861971
  4.1176200144814707  6.4945518696026419  6.0092528642615299
  4.2298779823728543  9.2770516930764995  8.0427462704246189
  1.3351209737622425  6.6068282966302689  8.0427459395564505
  0.8111177265971982  8.7530597588632553  9.1771752315012876
  4.7538802467808221  7.1308212986377502  9.1771742913020375
  3.5936185691203364  9.9133203110253074  4.8748251993348894
  1.9713796741334078  5.9705604307743814  4.8748247684987129
  7.0123777815858999  3.8243289029088512  1.3252522067861967
  9.6826200144814720  0.9295518696026412  1.3252528642615293
  9.7948779823728547  3.7120516930764977  3.3587462704246178
  6.9001209737622426  1.0418282966302685  3.3587459395564494
  6.3761177265971982  3.1880597588632549  4.4931752315012874
 10.3188802467808234  1.5658212986377489  4.4931742913020383
  9.1586185691203372  4.3483203110253070  0.1908251993348906
  7.5363796741334079  0.4055604307743812  0.1908247684987129
  7.0123777815858999  3.8243289029088512  6.0092522067861971
  9.6826200144814720  0.9295518696026412  6.0092528642615299
  9.7948779823728547  3.7120516930764977  8.0427462704246189
  6.9001209737622426  1.0418282966302685  8.0427459395564505
  6.3761177265971982  3.1880597588632549  9.1771752315012876
 10.3188802467808234  1.5658212986377489  9.1771742913020375
  9.1586185691203372  4.3483203110253070  4.8748251993348894
  7.5363796741334079  0.4055604307743812  4.8748247684987129
  7.0123777815858999  9.3893289029088507  1.3252522067861967
  9.6826200144814720  6.4945518696026419  1.3252528642615293
  9.7948779823728547  9.2770516930764995  3.3587462704246178
  6.9001209737622426  6.6068282966302689  3.3587459395564494
  6.3761177265971982  8.7530597588632553  4.4931752315012874
 10.3188802467808234  7.1308212986377502  4.4931742913020383
  9.1586185691203372  9.9133203110253074  0.1908251993348906
  7.5363796741334079  5.9705604307743814  0.1908247684987129
  7.0123777815858999  9.3893289029088507  6.0092522067861971
  9.6826200144814720  6.4945518696026419  6.0092528642615299
  9.7948779823728547  9.2770516930764995  8.0427462704246189
  6.9001209737622426  6.6068282966302689  8.0427459395564505
  6.3761177265971982  8.7530597588632553  9.1771752315012876
 10.3188802467808234  7.1308212986377502  9.1771742913020375
  9.1586185691203372  9.9133203110253074  4.8748251993348894
  7.5363796741334079  5.9705604307743814  4.8748247684987129
  0.8170102501244880  3.1939384100393271  0.8284825208000191
  4.7479903423467649  1.5599464545631603  0.8284838177201578
  3.5995100106663394  4.3424424995657418  3.8555174873909039
  1.9654898797088767  0.4114355458736164  3.8555162916373855
  0.8170102501244880  3.1939384100393271  5.5124825208000194
  4.7479903423467649  1.5599464545631603  5.5124838177201578
  3.5995100106663394  4.3424424995657418  8.5395174873909045
  1.9654898797088767  0.4114355458736164  8.5395162916373852
  0.8170102501244880  8.7589384100393275  0.8284825208000191
  4.7479903423467649  7.1249464545631600  0.8284838177201578
  3.5995100106663394  9.9074424995657431  3.8555174873909039
  1.9654898797088767  5.9764355458736169  3.8555162916373855
  0.8170102501244880  8.7589384100393275  5.5124825208000194
  4.7479903423467649  7.1249464545631600  5.5124838177201578
  3.5995100106663394  9.9074424995657431  8.5395174873909045
  1.9654898797088767  5.9764355458736169  8.5395162916373852
  6.3820102501244884  3.1939384100393271  0.8284825208000191
 10.3129903423467670  1.5599464545631603  0.8284838177201578
  9.1645100106663406  4.3424424995657418  3.8555174873909039
  7.5304898797088766  0.4114355458736164  3.8555162916373855
  6.3820102501244884  3.1939384100393271  5.5124825208000194
 10.3129903423467670  1.5599464545631603  5.5124838177201578
  9.1645100106663406  4.3424424995657418  8.5395174873909045
  7.5304898797088766  0.4114355458736164  8.5395162916373852
  6.3820102501244884  8.7589384100393275  0.8284825208000191
 10.3129903423467670  7.1249464545631600  0.8284838177201578
  9.1645100106663406  9.9074424995657431  3.8555174873909039
  7.5304898797088766  5.9764355458736169  3.8555162916373855
  6.3820102501244884  8.7589384100393275  5.5124825208000194
 10.3129903423467670  7.1249464545631600  5.5124838177201578
  9.1645100106663406  9.9074424995657431  8.5395174873909045
  7.5304898797088766  5.9764355458736169  8.5395162916373852
  5.5649991849700902  2.3769414417865597  2.8003400788241342
  2.7824995777667736  5.1594395692256194  1.8836608603165215
  5.5649991849700902  2.3769414417865597  7.4843400788241343
  2.7824995777667736  5.1594395692256194  6.5676608603165221
  5.5649991849700902  7.9419414417865610  2.8003400788241342
  2.7824995777667736 10.7244395692256216  1.8836608603165215
  5.5649991849700902  7.9419414417865610  7.4843400788241343
  2.7824995777667736 10.7244395692256216  6.5676608603165221
 -0.0000008150299092  2.3769414417865597  2.8003400788241342
  8.3474995777667740  5.1594395692256194  1.8836608603165215
 -0.0000008150299092  2.3769414417865597  7.4843400788241343
  8.3474995777667740  5.1594395692256194  6.5676608603165221
 -0.0000008150299092  7.9419414417865610  2.8003400788241342
  8.3474995777667740 10.7244395692256216  1.8836608603165215
 -0.0000008150299092  7.9419414417865610  7.4843400788241343
  8.3474995777667740 10.7244395692256216  6.5676608603165221
