C H N
        1.0000000000
  16.570334064611629  -0.000005969140347   0.000000665251185
  -0.000004560731616  12.728680179148455  -0.000000415303230
   0.000000787044605  -0.000000644524429  20.728679379217134
  144  192   96
 Direct
   0.145448839970604   0.056371051389831   0.129655933015677
   0.645448839970604   0.056371051389831   0.129655933015677
   0.145448839970604   0.056371051389831   0.462989266349010
   0.645448839970604   0.056371051389831   0.462989266349010
   0.145448839970604   0.056371051389831   0.796322599682344
   0.645448839970604   0.056371051389831   0.796322599682344
   0.395450084766540   0.943630616876228   0.203675669861380
   0.895450084766540   0.943630616876228   0.203675669861380
   0.395450084766540   0.943630616876228   0.537009003194713
   0.895450084766540   0.943630616876228   0.537009003194713
   0.395450084766540   0.943630616876228   0.870342336528047
   0.895450084766540   0.943630616876228   0.870342336528047
   0.145449308854196   0.443629686941691   0.296323065759142
   0.645449308854196   0.443629686941691   0.296323065759142
   0.145449308854196   0.443629686941691   0.629656399092476
   0.645449308854196   0.443629686941691   0.629656399092476
   0.145449308854196   0.443629686941691   0.962989732425809
   0.645449308854196   0.443629686941691   0.962989732425809
   0.395450210008930   0.556370484731437   0.037009513452017
   0.895450210008931   0.556370484731437   0.037009513452017
   0.395450210008930   0.556370484731437   0.370342846785350
   0.895450210008931   0.556370484731437   0.370342846785350
   0.395450210008930   0.556370484731437   0.703676180118684
   0.895450210008931   0.556370484731437   0.703676180118684
   0.195959348623362   0.117144293875743   0.169839356499436
   0.695959348623362   0.117144293875743   0.169839356499436
   0.195959348623362   0.117144293875743   0.503172689832770
   0.695959348623362   0.117144293875743   0.503172689832770
   0.195959348623362   0.117144293875743   0.836506023166103
   0.695959348623362   0.117144293875743   0.836506023166103
   0.445960255899381   0.882856691689614   0.163492388546360
   0.945960255899381   0.882856691689614   0.163492388546360
   0.445960255899381   0.882856691689614   0.496825721879694
   0.945960255899381   0.882856691689614   0.496825721879694
   0.445960255899381   0.882856691689614   0.830159055213027
   0.945960255899381   0.882856691689614   0.830159055213027
   0.195959446325610   0.382855911740688   0.003173107403146
   0.695959446325610   0.382855911740688   0.003173107403146
   0.195959446325610   0.382855911740688   0.336506440736479
   0.695959446325610   0.382855911740688   0.336506440736479
   0.195959446325610   0.382855911740688   0.669839774069813
   0.695959446325610   0.382855911740688   0.669839774069813
   0.445960262786561   0.617144159662228   0.330159320125196
   0.945960262786561   0.617144159662228   0.330159320125196
   0.445960262786561   0.617144159662228   0.663492653458530
   0.945960262786561   0.617144159662228   0.663492653458530
   0.445960262786561   0.617144159662228   0.996825986791863
   0.945960262786561   0.617144159662228   0.996825986791863
   0.147291838846773   0.198322269758825   0.192074093882612
   0.647291838846773   0.198322269758825   0.192074093882612
   0.147291838846773   0.198322269758825   0.525407427215945
   0.647291838846773   0.198322269758825   0.525407427215945
   0.147291838846773   0.198322269758825   0.858740760549278
   0.647291838846773   0.198322269758825   0.858740760549278
   0.397292362452820   0.801678755074400   0.141258020738733
   0.897292362452820   0.801678755074400   0.141258020738733
   0.397292362452820   0.801678755074400   0.474591354072066
   0.897292362452820   0.801678755074400   0.474591354072066
   0.397292362452820   0.801678755074400   0.807924687405399
   0.897292362452820   0.801678755074400   0.807924687405399
   0.147291547374948   0.301678007723333   0.025407509374557
   0.647291547374948   0.301678007723333   0.025407509374557
   0.147291547374948   0.301678007723333   0.358740842707890
   0.647291547374948   0.301678007723333   0.358740842707890
   0.147291547374948   0.301678007723333   0.692074176041223
   0.647291547374948   0.301678007723333   0.692074176041223
   0.397292277826210   0.698321761694222   0.307924721531154
   0.897292277826210   0.698321761694222   0.307924721531154
   0.397292277826210   0.698321761694222   0.641258054864487
   0.897292277826210   0.698321761694222   0.641258054864487
   0.397292277826210   0.698321761694222   0.974591388197821
   0.897292277826210   0.698321761694222   0.974591388197821
   0.356744452198809   0.184893176044120   0.308582625142389
   0.856744452198809   0.184893176044120   0.308582625142389
   0.356744452198809   0.184893176044120   0.641915958475722
   0.856744452198809   0.184893176044120   0.641915958475722
   0.356744452198809   0.184893176044120   0.975249291809056
   0.856744452198809   0.184893176044120   0.975249291809056
   0.106745649781859   0.815106685585620   0.024749253941831
   0.606745649781859   0.815106685585620   0.024749253941831
   0.106745649781859   0.815106685585620   0.358082587275164
   0.606745649781859   0.815106685585620   0.358082587275164
   0.106745649781859   0.815106685585620   0.691415920608497
   0.606745649781859   0.815106685585620   0.691415920608497
   0.356745334176550   0.315107565590204   0.141916188409713
   0.856745334176550   0.315107565590204   0.141916188409713
   0.356745334176550   0.315107565590204   0.475249521743046
   0.856745334176550   0.315107565590204   0.475249521743046
   0.356745334176550   0.315107565590204   0.808582855076380
   0.856745334176550   0.315107565590204   0.808582855076380
   0.106745418146118   0.684893834623941   0.191416043446820
   0.606745418146118   0.684893834623941   0.191416043446820
   0.106745418146118   0.684893834623941   0.524749376780153
   0.606745418146118   0.684893834623941   0.524749376780153
   0.106745418146118   0.684893834623941   0.858082710113487
   0.606745418146118   0.684893834623941   0.858082710113487
   0.303546056946883   0.108307108560457   0.333271076116941
   0.803546056946883   0.108307108560457   0.333271076116941
   0.303546056946883   0.108307108560457   0.666604409450274
   0.803546056946883   0.108307108560457   0.666604409450274
   0.303546056946883   0.108307108560457   0.999937742783607
   0.803546056946883   0.108307108560457   0.999937742783607
   0.053547325367005   0.891692858690777   0.000060916244749
   0.553547325367004   0.891692858690777   0.000060916244749
   0.053547325367005   0.891692858690777   0.333394249578082
   0.553547325367004   0.891692858690777   0.333394249578082
   0.053547325367005   0.891692858690777   0.666727582911416
   0.553547325367004   0.891692858690777   0.666727582911416
   0.303546481610668   0.391693031542050   0.166604664330727
   0.803546481610668   0.391693031542050   0.166604664330727
   0.303546481610668   0.391693031542050   0.499937997664060
   0.803546481610668   0.391693031542050   0.499937997664060
   0.303546481610668   0.391693031542050   0.833271330997394
   0.803546481610668   0.391693031542050   0.833271330997394
   0.053547157078951   0.608307421582578   0.166727794692596
   0.553547157078951   0.608307421582578   0.166727794692596
   0.053547157078951   0.608307421582578   0.500061128025929
   0.553547157078951   0.608307421582578   0.500061128025929
   0.053547157078951   0.608307421582578   0.833394461359263
   0.553547157078951   0.608307421582578   0.833394461359263
   0.348459285433478   0.052906112895989   0.045138147212648
   0.848459285433478   0.052906112895989   0.045138147212648
   0.348459285433478   0.052906112895989   0.378471480545982
   0.848459285433478   0.052906112895989   0.378471480545982
   0.348459285433478   0.052906112895989   0.711804813879315
   0.848459285433478   0.052906112895989   0.711804813879315
   0.098460601051137   0.947093887374399   0.288193825594295
   0.598460601051137   0.947093887374399   0.288193825594295
   0.098460601051137   0.947093887374399   0.621527158927628
   0.598460601051137   0.947093887374399   0.621527158927628
   0.098460601051137   0.947093887374399   0.954860492260961
   0.598460601051137   0.947093887374399   0.954860492260961
   0.348459261228580   0.447094090192217   0.211805376118260
   0.848459261228580   0.447094090192217   0.211805376118260
   0.348459261228580   0.447094090192217   0.545138709451594
   0.848459261228580   0.447094090192217   0.545138709451594
   0.348459261228580   0.447094090192217   0.878472042784927
   0.848459261228580   0.447094090192217   0.878472042784927
   0.098460511676226   0.552906225133968   0.121527548303442
   0.598460511676226   0.552906225133968   0.121527548303442
   0.098460511676226   0.552906225133968   0.454860881636775
   0.598460511676226   0.552906225133968   0.454860881636775
   0.098460511676226   0.552906225133968   0.788194214970108
   0.598460511676226   0.552906225133968   0.788194214970108
   0.022719153766193   0.231640064426949   0.169434002042284
   0.522719153766193   0.231640064426949   0.169434002042284
   0.022719153766193   0.231640064426949   0.502767335375617
   0.522719153766193   0.231640064426949   0.502767335375617
   0.022719153766193   0.231640064426949   0.836100668708951
   0.522719153766193   0.231640064426949   0.836100668708951
   0.272719551490084   0.768361923457161   0.163898381260498
   0.772719551490084   0.768361923457161   0.163898381260498
   0.272719551490084   0.768361923457161   0.497231714593831
   0.772719551490084   0.768361923457161   0.497231714593831
   0.272719551490084   0.768361923457161   0.830565047927164
   0.772719551490084   0.768361923457161   0.830565047927164
   0.022718779352335   0.268361035611121   0.002767053859431
   0.522718779352335   0.268361035611121   0.002767053859431
   0.022718779352335   0.268361035611121   0.336100387192765
   0.522718779352335   0.268361035611121   0.336100387192765
   0.022718779352335   0.268361035611121   0.669433720526098
   0.522718779352335   0.268361035611121   0.669433720526098
   0.272719546289395   0.731638541489626   0.330565093212862
   0.772719546289395   0.731638541489626   0.330565093212862
   0.272719546289395   0.731638541489626   0.663898426546195
   0.772719546289395   0.731638541489626   0.663898426546195
   0.272719546289395   0.731638541489626   0.997231759879529
   0.772719546289395   0.731638541489626   0.997231759879529
   0.160067882292350   0.263870710059291   0.223242369225319
   0.660067882292350   0.263870710059291   0.223242369225319
   0.160067882292350   0.263870710059291   0.556575702558652
   0.660067882292350   0.263870710059291   0.556575702558652
   0.160067882292350   0.263870710059291   0.889909035891985
   0.660067882292350   0.263870710059291   0.889909035891985
   0.410068051788663   0.736129926740543   0.110089993295014
   0.910068051788663   0.736129926740543   0.110089993295014
   0.410068051788663   0.736129926740543   0.443423326628348
   0.910068051788663   0.736129926740543   0.443423326628348
   0.410068051788663   0.736129926740543   0.776756659961681
   0.910068051788663   0.736129926740543   0.776756659961681
   0.160067226095085   0.236129270384796   0.056575600706917
   0.660067226095085   0.236129270384796   0.056575600706917
   0.160067226095085   0.236129270384796   0.389908934040250
   0.660067226095085   0.236129270384796   0.389908934040250
   0.160067226095085   0.236129270384796   0.723242267373584
   0.660067226095085   0.236129270384796   0.723242267373584
   0.410067904667493   0.763870347658364   0.276756418494279
   0.910067904667493   0.763870347658364   0.276756418494279
   0.410067904667493   0.763870347658364   0.610089751827612
   0.910067904667493   0.763870347658364   0.610089751827612
   0.410067904667493   0.763870347658364   0.943423085160946
   0.910067904667493   0.763870347658364   0.943423085160946
   0.258500660490865   0.103577359537550   0.181015366966756
   0.758500660490865   0.103577359537550   0.181015366966756
   0.258500660490865   0.103577359537550   0.514348700300089
   0.758500660490865   0.103577359537550   0.514348700300089
   0.258500660490865   0.103577359537550   0.847682033633422
   0.758500660490865   0.103577359537550   0.847682033633422
   0.008501586447598   0.896423131739550   0.152316246929690
   0.508501586447598   0.896423131739550   0.152316246929690
   0.008501586447598   0.896423131739550   0.485649580263023
   0.508501586447598   0.896423131739550   0.485649580263023
   0.008501586447598   0.896423131739550   0.818982913596356
   0.508501586447598   0.896423131739550   0.818982913596356
   0.258500764162667   0.396422424141111   0.014349297705774
   0.758500764162667   0.396422424141111   0.014349297705774
   0.258500764162667   0.396422424141111   0.347682631039107
   0.758500764162667   0.396422424141111   0.347682631039107
   0.258500764162667   0.396422424141111   0.681015964372441
   0.758500764162667   0.396422424141111   0.681015964372441
   0.008501626190779   0.603577804663604   0.318983152006615
   0.508501626190780   0.603577804663604   0.318983152006615
   0.008501626190779   0.603577804663604   0.652316485339948
   0.508501626190780   0.603577804663604   0.652316485339948
   0.008501626190779   0.603577804663604   0.985649818673282
   0.508501626190780   0.603577804663604   0.985649818673282
   0.159627610419641   0.985863261992309   0.102986324652444
   0.659627610419641   0.985863261992309   0.102986324652444
   0.159627610419641   0.985863261992309   0.436319657985778
   0.659627610419641   0.985863261992309   0.436319657985778
   0.159627610419641   0.985863261992309   0.769652991319111
   0.659627610419641   0.985863261992309   0.769652991319111
   0.409629217607869   0.014138647340288   0.230344954342416
   0.909629217607869   0.014138647340288   0.230344954342416
   0.409629217607869   0.014138647340288   0.563678287675749
   0.909629217607869   0.014138647340288   0.563678287675749
   0.409629217607869   0.014138647340288   0.897011621009082
   0.909629217607869   0.014138647340288   0.897011621009082
   0.159628449205134   0.514137598895102   0.269653677400103
   0.659628449205134   0.514137598895102   0.269653677400103
   0.159628449205134   0.514137598895102   0.602987010733437
   0.659628449205134   0.514137598895102   0.602987010733437
   0.159628449205134   0.514137598895102   0.936320344066770
   0.659628449205134   0.514137598895102   0.936320344066770
   0.409629438325897   0.485862795345669   0.063679051638724
   0.909629438325897   0.485862795345669   0.063679051638724
   0.409629438325897   0.485862795345669   0.397012384972057
   0.909629438325897   0.485862795345669   0.397012384972057
   0.409629438325897   0.485862795345669   0.730345718305391
   0.909629438325897   0.485862795345669   0.730345718305391
   0.472151611927401   0.080300611520631   0.075184771817621
   0.972151611927401   0.080300611520631   0.075184771817621
   0.472151611927401   0.080300611520631   0.408518105150955
   0.972151611927401   0.080300611520631   0.408518105150955
   0.472151611927401   0.080300611520631   0.741851438484288
   0.972151611927401   0.080300611520631   0.741851438484288
   0.222152954224711   0.919699726979690   0.258147250656560
   0.722152954224711   0.919699726979690   0.258147250656560
   0.222152954224711   0.919699726979690   0.591480583989894
   0.722152954224711   0.919699726979690   0.591480583989894
   0.222152954224711   0.919699726979690   0.924813917323227
   0.722152954224711   0.919699726979690   0.924813917323227
   0.472151670966322   0.419700569943675   0.241852179060397
   0.972151670966322   0.419700569943675   0.241852179060397
   0.472151670966322   0.419700569943675   0.575185512393731
   0.972151670966322   0.419700569943675   0.575185512393731
   0.472151670966322   0.419700569943675   0.908518845727064
   0.972151670966322   0.419700569943675   0.908518845727064
   0.222152900093011   0.580300555786362   0.091481026020801
   0.722152900093011   0.580300555786362   0.091481026020801
   0.222152900093011   0.580300555786362   0.424814359354134
   0.722152900093011   0.580300555786362   0.424814359354134
   0.222152900093011   0.580300555786362   0.758147692687467
   0.722152900093011   0.580300555786362   0.758147692687467
   0.332989226548125   0.987598616913145   0.075776815797047
   0.832989226548125   0.987598616913145   0.075776815797047
   0.332989226548125   0.987598616913145   0.409110149130380
   0.832989226548125   0.987598616913145   0.409110149130380
   0.332989226548125   0.987598616913145   0.742443482463713
   0.832989226548125   0.987598616913145   0.742443482463713
   0.082990656265404   0.012401452524572   0.257555220753640
   0.582990656265404   0.012401452524572   0.257555220753640
   0.082990656265404   0.012401452524572   0.590888554086973
   0.582990656265404   0.012401452524572   0.590888554086973
   0.082990656265404   0.012401452524572   0.924221887420307
   0.582990656265404   0.012401452524572   0.924221887420307
   0.332988799673930   0.512401200573416   0.242444181293538
   0.832988799673930   0.512401200573416   0.242444181293538
   0.332988799673930   0.512401200573416   0.575777514626871
   0.832988799673930   0.512401200573416   0.575777514626871
   0.332988799673930   0.512401200573416   0.909110847960205
   0.832988799673930   0.512401200573416   0.909110847960205
   0.082990622840209   0.487598441069890   0.090889063933820
   0.582990622840209   0.487598441069890   0.090889063933820
   0.082990622840209   0.487598441069890   0.424222397267153
   0.582990622840209   0.487598441069890   0.424222397267153
   0.082990622840209   0.487598441069890   0.757555730600487
   0.582990622840209   0.487598441069890   0.757555730600487
   0.241528221015532   0.095197879570028   0.320197317371662
   0.741528221015532   0.095197879570028   0.320197317371662
   0.241528221015532   0.095197879570028   0.653530650704996
   0.741528221015532   0.095197879570028   0.653530650704996
   0.241528221015532   0.095197879570028   0.986863984038329
   0.741528221015532   0.095197879570028   0.986863984038329
   0.491529553087752   0.904802184798074   0.013134757343485
   0.991529553087752   0.904802184798074   0.013134757343485
   0.491529553087752   0.904802184798074   0.346468090676818
   0.991529553087752   0.904802184798074   0.346468090676818
   0.491529553087752   0.904802184798074   0.679801424010152
   0.991529553087752   0.904802184798074   0.679801424010152
   0.241528693333066   0.404801803158992   0.153530724163762
   0.741528693333066   0.404801803158992   0.153530724163762
   0.241528693333066   0.404801803158992   0.486864057497095
   0.741528693333066   0.404801803158992   0.486864057497095
   0.241528693333066   0.404801803158992   0.820197390830429
   0.741528693333066   0.404801803158992   0.820197390830429
   0.491529355917117   0.595198060091638   0.179801594349601
   0.991529355917117   0.595198060091638   0.179801594349601
   0.491529355917117   0.595198060091638   0.513134927682935
   0.991529355917117   0.595198060091638   0.513134927682935
   0.491529355917117   0.595198060091638   0.846468261016268
   0.991529355917117   0.595198060091638   0.846468261016268
   0.345409716258272   0.243982519736067   0.272473301393713
   0.845409716258272   0.243982519736067   0.272473301393713
   0.345409716258272   0.243982519736067   0.605806634727047
   0.845409716258272   0.243982519736067   0.605806634727047
   0.345409716258272   0.243982519736067   0.939139968060380
   0.845409716258272   0.243982519736067   0.939139968060380
   0.095410890499670   0.756017256549638   0.060858527211211
   0.595410890499670   0.756017256549638   0.060858527211211
   0.095410890499670   0.756017256549638   0.394191860544544
   0.595410890499670   0.756017256549638   0.394191860544544
   0.095410890499670   0.756017256549638   0.727525193877877
   0.595410890499670   0.756017256549638   0.727525193877877
   0.345411069732131   0.256018363422461   0.105806659630522
   0.845411069732131   0.256018363422461   0.105806659630522
   0.345411069732131   0.256018363422461   0.439139992963856
   0.845411069732131   0.256018363422461   0.439139992963856
   0.345411069732131   0.256018363422461   0.772473326297189
   0.845411069732131   0.256018363422461   0.772473326297189
   0.095410559580581   0.743983447709605   0.227525176916505
   0.595410559580581   0.743983447709605   0.227525176916505
   0.095410559580581   0.743983447709605   0.560858510249838
   0.595410559580581   0.743983447709605   0.560858510249838
   0.095410559580581   0.743983447709605   0.894191843583171
   0.595410559580581   0.743983447709605   0.894191843583171
   0.072838697221836   0.183728703763116   0.165956275654770
   0.572838697221836   0.183728703763116   0.165956275654770
   0.072838697221836   0.183728703763116   0.499289608988104
   0.572838697221836   0.183728703763116   0.499289608988104
   0.072838697221836   0.183728703763116   0.832622942321437
   0.572838697221836   0.183728703763116   0.832622942321437
   0.322839324862873   0.816273001485767   0.167375891797236
   0.822839324862873   0.816273001485767   0.167375891797236
   0.322839324862873   0.816273001485767   0.500709225130569
   0.822839324862873   0.816273001485767   0.500709225130569
   0.322839324862873   0.816273001485767   0.834042558463903
   0.822839324862873   0.816273001485767   0.834042558463903
   0.072838543651091   0.316272134466060   0.332622897189963
   0.572838543651091   0.316272134466060   0.332622897189963
   0.072838543651091   0.316272134466060   0.665956230523296
   0.572838543651091   0.316272134466060   0.665956230523296
   0.072838543651091   0.316272134466060   0.999289563856629
   0.572838543651091   0.316272134466060   0.999289563856629
   0.322839318852022   0.683727539986203   0.000709381109006
   0.822839318852022   0.683727539986203   0.000709381109006
   0.322839318852022   0.683727539986203   0.334042714442339
   0.822839318852022   0.683727539986203   0.334042714442339
   0.322839318852022   0.683727539986203   0.667376047775672
   0.822839318852022   0.683727539986203   0.667376047775672
   0.070345383502902   0.096898320834745   0.126842583262793
   0.570345383502903   0.096898320834745   0.126842583262793
   0.070345383502902   0.096898320834745   0.460175916596127
   0.570345383502903   0.096898320834745   0.460175916596127
   0.070345383502902   0.096898320834745   0.793509249929460
   0.570345383502903   0.096898320834745   0.793509249929460
   0.320346451680247   0.903103791951560   0.206489281032430
   0.820346451680247   0.903103791951560   0.206489281032430
   0.320346451680247   0.903103791951560   0.539822614365763
   0.820346451680247   0.903103791951560   0.539822614365763
   0.320346451680247   0.903103791951560   0.873155947699096
   0.820346451680247   0.903103791951560   0.873155947699096
   0.070345698432034   0.403102817757778   0.293509441715664
   0.570345698432034   0.403102817757778   0.293509441715664
   0.070345698432034   0.403102817757778   0.626842775048997
   0.570345698432034   0.403102817757778   0.626842775048997
   0.070345698432034   0.403102817757778   0.960176108382330
   0.570345698432034   0.403102817757778   0.960176108382330
   0.320346585354048   0.596897167886920   0.039823030778059
   0.820346585354047   0.596897167886920   0.039823030778059
   0.320346585354048   0.596897167886920   0.373156364111392
   0.820346585354047   0.596897167886920   0.373156364111392
   0.320346585354048   0.596897167886920   0.706489697444725
   0.820346585354047   0.596897167886920   0.706489697444725
   0.423518326342808   0.096408178470740   0.045890529365647
   0.923518326342808   0.096408178470740   0.045890529365647
   0.423518326342808   0.096408178470740   0.379223862698980
   0.923518326342808   0.096408178470740   0.379223862698980
   0.423518326342808   0.096408178470740   0.712557196032313
   0.923518326342808   0.096408178470740   0.712557196032313
   0.173519564936128   0.903591715057387   0.287441324907686
   0.673519564936128   0.903591715057387   0.287441324907686
   0.173519564936128   0.903591715057387   0.620774658241019
   0.673519564936128   0.903591715057387   0.620774658241019
   0.173519564936128   0.903591715057387   0.954107991574352
   0.673519564936128   0.903591715057387   0.954107991574352
   0.423518477722751   0.403592630803848   0.212557901867786
   0.923518477722751   0.403592630803848   0.212557901867786
   0.423518477722751   0.403592630803848   0.545891235201120
   0.923518477722751   0.403592630803848   0.545891235201120
   0.423518477722751   0.403592630803848   0.879224568534453
   0.923518477722751   0.403592630803848   0.879224568534453
   0.173519480087129   0.596408535594649   0.120775058021286
   0.673519480087129   0.596408535594649   0.120775058021286
   0.173519480087129   0.596408535594649   0.454108391354619
   0.673519480087129   0.596408535594649   0.454108391354619
   0.173519480087129   0.596408535594649   0.787441724687953
   0.673519480087129   0.596408535594649   0.787441724687953
   0.429975367118337   0.178107857295375   0.003163826317171
   0.929975367118337   0.178107857295375   0.003163826317171
   0.429975367118337   0.178107857295375   0.336497159650504
   0.929975367118337   0.178107857295375   0.336497159650504
   0.429975367118337   0.178107857295375   0.669830492983837
   0.929975367118337   0.178107857295375   0.669830492983837
   0.179976539690307   0.821891997615459   0.330167990749453
   0.679976539690307   0.821891997615459   0.330167990749453
   0.179976539690307   0.821891997615459   0.663501324082787
   0.679976539690307   0.821891997615459   0.663501324082787
   0.179976539690307   0.821891997615459   0.996834657416120
   0.679976539690307   0.821891997615459   0.996834657416120
   0.429976084615297   0.321893301612062   0.169830977427496
   0.929976084615297   0.321893301612062   0.169830977427496
   0.429976084615297   0.321893301612062   0.503164310760829
   0.929976084615297   0.321893301612062   0.503164310760829
   0.429976084615297   0.321893301612062   0.836497644094162
   0.929976084615297   0.321893301612062   0.836497644094162
   0.179976361665864   0.678108506788385   0.163501549381126
   0.679976361665864   0.678108506788385   0.163501549381126
   0.179976361665864   0.678108506788385   0.496834882714459
   0.679976361665864   0.678108506788385   0.496834882714459
   0.179976361665864   0.678108506788385   0.830168216047792
   0.679976361665864   0.678108506788385   0.830168216047792
