 C  N  H 
        1.0000000000
  15.308823765620300   0.000000000000000  -0.032020683157084
   0.000000000000000  10.742368833244642   0.000000000000000
  -9.613068678293466   0.000000000000000  17.408227279773811
   96   64  128
 Direct
   0.078103208997848   0.111545926153058   0.089170348215450
   0.578103208997848   0.111545926153058   0.089170348215450
   0.078103208997848   0.611545926153058   0.089170348215450
   0.578103208997848   0.611545926153058   0.089170348215450
   0.078103208997848   0.111545926153058   0.589170348215450
   0.578103208997848   0.111545926153058   0.589170348215450
   0.078103208997848   0.611545926153058   0.589170348215450
   0.578103208997848   0.611545926153058   0.589170348215450
   0.421896782702174   0.388454076647179   0.410829660704795
   0.921896782702174   0.388454076647179   0.410829660704795
   0.421896782702174   0.888454076647179   0.410829660704795
   0.921896782702174   0.888454076647179   0.410829660704795
   0.421896782702174   0.388454076647179   0.910829660704795
   0.921896782702174   0.388454076647179   0.910829660704795
   0.421896782702174   0.888454076647179   0.910829660704795
   0.921896782702174   0.888454076647179   0.910829660704795
   0.421896773382686   0.361545912437814   0.160829499189119
   0.921896773382686   0.361545912437814   0.160829499189119
   0.421896773382686   0.861545912437814   0.160829499189119
   0.921896773382686   0.861545912437814   0.160829499189119
   0.421896773382686   0.361545912437814   0.660829499189119
   0.921896773382686   0.361545912437814   0.660829499189119
   0.421896773382686   0.861545912437814   0.660829499189119
   0.921896773382686   0.861545912437814   0.660829499189119
   0.078103228811379   0.138454076074929   0.339170477987539
   0.578103228811379   0.138454076074929   0.339170477987539
   0.078103228811379   0.638454076074929   0.339170477987539
   0.578103228811379   0.638454076074929   0.339170477987539
   0.078103228811379   0.138454076074929   0.839170477987539
   0.578103228811379   0.138454076074929   0.839170477987539
   0.078103228811379   0.638454076074929   0.839170477987539
   0.578103228811379   0.638454076074929   0.839170477987539
   0.154287082328091   0.280732656383276   0.147748436502526
   0.654287082328091   0.280732656383276   0.147748436502526
   0.154287082328091   0.780732656383276   0.147748436502526
   0.654287082328091   0.780732656383276   0.147748436502526
   0.154287082328091   0.280732656383276   0.647748436502526
   0.654287082328091   0.280732656383276   0.647748436502526
   0.154287082328091   0.780732656383276   0.647748436502526
   0.654287082328091   0.780732656383276   0.647748436502526
   0.345712908074824   0.219267348030443   0.352251567788308
   0.845712908074824   0.219267348030443   0.352251567788308
   0.345712908074824   0.719267348030443   0.352251567788308
   0.845712908074824   0.719267348030443   0.352251567788308
   0.345712908074824   0.219267348030443   0.852251567788308
   0.845712908074824   0.219267348030443   0.852251567788308
   0.345712908074824   0.719267348030443   0.852251567788308
   0.845712908074824   0.719267348030443   0.852251567788308
   0.345712898623320   0.030732678602500   0.102251428250718
   0.845712898623320   0.030732678602500   0.102251428250718
   0.345712898623320   0.530732678602500   0.102251428250718
   0.845712898623320   0.530732678602500   0.102251428250718
   0.345712898623320   0.030732678602500   0.602251428250718
   0.845712898623320   0.030732678602500   0.602251428250718
   0.345712898623320   0.530732678602500   0.602251428250718
   0.845712898623320   0.530732678602500   0.602251428250718
   0.154287099289836   0.469267313210034   0.397748552304772
   0.654287099289836   0.469267313210034   0.397748552304772
   0.154287099289836   0.969267313210034   0.397748552304772
   0.654287099289836   0.969267313210034   0.397748552304772
   0.154287099289836   0.469267313210034   0.897748552304772
   0.654287099289836   0.469267313210034   0.897748552304772
   0.154287099289836   0.969267313210034   0.897748552304772
   0.654287099289836   0.969267313210034   0.897748552304772
   0.158092317644613   0.276810088341676   0.080084715589555
   0.658092317644613   0.276810088341676   0.080084715589555
   0.158092317644613   0.776810088341676   0.080084715589555
   0.658092317644613   0.776810088341676   0.080084715589555
   0.158092317644613   0.276810088341676   0.580084715589555
   0.658092317644613   0.276810088341676   0.580084715589555
   0.158092317644613   0.776810088341676   0.580084715589555
   0.658092317644613   0.776810088341676   0.580084715589555
   0.341907680015719   0.223189899371314   0.419915294519667
   0.841907680015719   0.223189899371314   0.419915294519667
   0.341907680015719   0.723189899371314   0.419915294519667
   0.841907680015719   0.723189899371314   0.419915294519667
   0.341907680015719   0.223189899371314   0.919915294519666
   0.841907680015719   0.223189899371314   0.919915294519666
   0.341907680015719   0.723189899371314   0.919915294519666
   0.841907680015719   0.723189899371314   0.919915294519666
   0.341907701472151   0.026810103536306   0.169915164905786
   0.841907701472151   0.026810103536306   0.169915164905786
   0.341907701472151   0.526810103536306   0.169915164905786
   0.841907701472151   0.526810103536306   0.169915164905786
   0.341907701472151   0.026810103536306   0.669915164905786
   0.841907701472151   0.026810103536306   0.669915164905786
   0.341907701472151   0.526810103536306   0.669915164905786
   0.841907701472151   0.526810103536306   0.669915164905786
   0.158092297820746   0.473189875433030   0.330084814563944
   0.658092297820746   0.473189875433030   0.330084814563944
   0.158092297820746   0.973189875433030   0.330084814563944
   0.658092297820746   0.973189875433030   0.330084814563944
   0.158092297820746   0.473189875433030   0.830084814563944
   0.658092297820746   0.473189875433030   0.830084814563944
   0.158092297820746   0.973189875433030   0.830084814563944
   0.658092297820746   0.973189875433030   0.830084814563944
   0.109115524372719   0.168595540618474   0.043232883803071
   0.609115524372719   0.168595540618474   0.043232883803071
   0.109115524372719   0.668595540618474   0.043232883803071
   0.609115524372719   0.668595540618474   0.043232883803071
   0.109115524372719   0.168595540618474   0.543232883803071
   0.609115524372719   0.168595540618474   0.543232883803071
   0.109115524372719   0.668595540618474   0.543232883803071
   0.609115524372719   0.668595540618474   0.543232883803071
   0.390884480373938   0.331404448003221   0.456767133187933
   0.890884480373938   0.331404448003221   0.456767133187933
   0.390884480373938   0.831404448003221   0.456767133187933
   0.890884480373938   0.831404448003221   0.456767133187933
   0.390884480373938   0.331404448003221   0.956767133187933
   0.890884480373938   0.331404448003221   0.956767133187933
   0.390884480373938   0.831404448003221   0.956767133187933
   0.890884480373938   0.831404448003221   0.956767133187933
   0.390884483855500   0.418595530902772   0.206766983413865
   0.890884483855500   0.418595530902772   0.206766983413865
   0.390884483855500   0.918595530902772   0.206766983413865
   0.890884483855500   0.918595530902772   0.206766983413865
   0.390884483855500   0.418595530902772   0.706766983413865
   0.890884483855500   0.418595530902772   0.706766983413865
   0.390884483855500   0.918595530902772   0.706766983413865
   0.890884483855500   0.918595530902772   0.706766983413865
   0.109115515379462   0.081404454194292   0.293232989134626
   0.609115515379462   0.081404454194292   0.293232989134626
   0.109115515379462   0.581404454194292   0.293232989134626
   0.609115515379462   0.581404454194292   0.293232989134626
   0.109115515379462   0.081404454194292   0.793232989134626
   0.609115515379462   0.081404454194292   0.793232989134626
   0.109115515379462   0.581404454194292   0.793232989134626
   0.609115515379462   0.581404454194292   0.793232989134626
   0.104037021466494   0.176743092377882   0.153268201013829
   0.604037021466494   0.176743092377882   0.153268201013829
   0.104037021466494   0.676743092377882   0.153268201013829
   0.604037021466494   0.676743092377882   0.153268201013829
   0.104037021466494   0.176743092377882   0.653268201013829
   0.604037021466494   0.176743092377882   0.653268201013829
   0.104037021466494   0.676743092377882   0.653268201013829
   0.604037021466494   0.676743092377882   0.653268201013829
   0.395962976642736   0.323256914497704   0.346731803779001
   0.895962976642736   0.323256914497704   0.346731803779001
   0.395962976642736   0.823256914497704   0.346731803779001
   0.895962976642736   0.823256914497704   0.346731803779001
   0.395962976642736   0.323256914497704   0.846731803779001
   0.895962976642736   0.323256914497704   0.846731803779001
   0.395962976642736   0.823256914497704   0.846731803779001
   0.895962976642736   0.823256914497704   0.846731803779001
   0.395962939314428   0.426743106613976   0.096731657608649
   0.895962939314428   0.426743106613976   0.096731657608649
   0.395962939314428   0.926743106613976   0.096731657608649
   0.895962939314428   0.926743106613976   0.096731657608649
   0.395962939314428   0.426743106613976   0.596731657608649
   0.895962939314428   0.426743106613976   0.596731657608649
   0.395962939314428   0.926743106613976   0.596731657608649
   0.895962939314428   0.926743106613976   0.596731657608649
   0.104037043513147   0.073256880908020   0.403268320759134
   0.604037043513147   0.073256880908020   0.403268320759134
   0.104037043513147   0.573256880908020   0.403268320759134
   0.604037043513147   0.573256880908020   0.403268320759134
   0.104037043513147   0.073256880908020   0.903268320759134
   0.604037043513147   0.073256880908020   0.903268320759134
   0.104037043513147   0.573256880908020   0.903268320759134
   0.604037043513147   0.573256880908020   0.903268320759134
   0.101761145767698   0.134908524422114   0.491865941365362
   0.601761145767698   0.134908524422114   0.491865941365362
   0.101761145767698   0.634908524422114   0.491865941365362
   0.601761145767698   0.634908524422114   0.491865941365362
   0.101761145767698   0.134908524422114   0.991865941365362
   0.601761145767698   0.134908524422114   0.991865941365362
   0.101761145767698   0.634908524422114   0.991865941365362
   0.601761145767698   0.634908524422114   0.991865941365362
   0.398238861675769   0.365091456542102   0.008134083146132
   0.898238861675769   0.365091456542102   0.008134083146132
   0.398238861675769   0.865091456542102   0.008134083146132
   0.898238861675769   0.865091456542102   0.008134083146132
   0.398238861675769   0.365091456542102   0.508134083146132
   0.898238861675769   0.365091456542102   0.508134083146132
   0.398238861675769   0.865091456542102   0.508134083146132
   0.898238861675769   0.865091456542102   0.508134083146132
   0.398238879655934   0.384908551659458   0.258133925999760
   0.898238879655934   0.384908551659458   0.258133925999760
   0.398238879655934   0.884908551659458   0.258133925999760
   0.898238879655934   0.884908551659458   0.258133925999760
   0.398238879655934   0.384908551659458   0.758133925999760
   0.898238879655934   0.384908551659458   0.758133925999760
   0.398238879655934   0.884908551659458   0.758133925999760
   0.898238879655934   0.884908551659458   0.758133925999760
   0.101761146601997   0.115091456182870   0.241866047224584
   0.601761146601997   0.115091456182870   0.241866047224584
   0.101761146601997   0.615091456182870   0.241866047224584
   0.601761146601997   0.615091456182870   0.241866047224584
   0.101761146601997   0.115091456182870   0.741866047224584
   0.601761146601997   0.115091456182870   0.741866047224584
   0.101761146601997   0.615091456182870   0.741866047224584
   0.601761146601997   0.615091456182870   0.741866047224584
   0.038147043914914   0.024487302180478   0.075101087375161
   0.538147043914914   0.024487302180478   0.075101087375161
   0.038147043914914   0.524487302180478   0.075101087375161
   0.538147043914914   0.524487302180478   0.075101087375161
   0.038147043914914   0.024487302180478   0.575101087375161
   0.538147043914914   0.024487302180478   0.575101087375161
   0.038147043914914   0.524487302180478   0.575101087375161
   0.538147043914914   0.524487302180478   0.575101087375161
   0.461852980715616   0.475512679727035   0.424898943437497
   0.961852980715616   0.475512679727035   0.424898943437497
   0.461852980715616   0.975512679727035   0.424898943437497
   0.961852980715616   0.975512679727035   0.424898943437497
   0.461852980715616   0.475512679727035   0.924898943437497
   0.961852980715616   0.475512679727035   0.924898943437497
   0.461852980715616   0.975512679727035   0.924898943437497
   0.961852980715616   0.975512679727035   0.924898943437497
   0.461852920708280   0.274487275827066   0.174898717664162
   0.961852920708280   0.274487275827066   0.174898717664162
   0.461852920708280   0.774487275827066   0.174898717664162
   0.961852920708280   0.774487275827066   0.174898717664162
   0.461852920708280   0.274487275827066   0.674898717664162
   0.961852920708280   0.274487275827066   0.674898717664162
   0.461852920708280   0.774487275827066   0.674898717664162
   0.961852920708280   0.774487275827066   0.674898717664162
   0.038147087559224   0.225512720588367   0.325101250422175
   0.538147087559224   0.225512720588367   0.325101250422175
   0.038147087559224   0.725512720588367   0.325101250422175
   0.538147087559224   0.725512720588367   0.325101250422175
   0.038147087559224   0.225512720588367   0.825101250422175
   0.538147087559224   0.225512720588367   0.825101250422175
   0.038147087559224   0.725512720588367   0.825101250422175
   0.538147087559224   0.725512720588367   0.825101250422175
   0.184115206270355   0.350772179884207   0.192072581387956
   0.684115206270355   0.350772179884207   0.192072581387956
   0.184115206270355   0.850772179884207   0.192072581387956
   0.684115206270355   0.850772179884207   0.192072581387956
   0.184115206270355   0.350772179884207   0.692072581387956
   0.684115206270355   0.350772179884207   0.692072581387956
   0.184115206270355   0.850772179884207   0.692072581387956
   0.684115206270355   0.850772179884207   0.692072581387956
   0.315884821325002   0.149227797506382   0.307927439880341
   0.815884821325002   0.149227797506382   0.307927439880341
   0.315884821325002   0.649227797506382   0.307927439880341
   0.815884821325002   0.649227797506382   0.307927439880341
   0.315884821325002   0.149227797506382   0.807927439880341
   0.815884821325002   0.149227797506382   0.807927439880341
   0.315884821325002   0.649227797506382   0.807927439880341
   0.815884821325002   0.649227797506382   0.807927439880341
   0.315884744751031   0.100772167204933   0.057927259570485
   0.815884744751031   0.100772167204933   0.057927259570485
   0.315884744751031   0.600772167204933   0.057927259570485
   0.815884744751031   0.600772167204933   0.057927259570485
   0.315884744751031   0.100772167204933   0.557927259570485
   0.815884744751031   0.100772167204933   0.557927259570485
   0.315884744751031   0.600772167204933   0.557927259570485
   0.815884744751031   0.600772167204933   0.557927259570485
   0.184115292534968   0.399227836772035   0.442072728083741
   0.684115292534968   0.399227836772035   0.442072728083741
   0.184115292534968   0.899227836772035   0.442072728083741
   0.684115292534968   0.899227836772035   0.442072728083741
   0.184115292534968   0.399227836772035   0.942072728083741
   0.684115292534968   0.399227836772035   0.942072728083741
   0.184115292534968   0.899227836772035   0.942072728083741
   0.684115292534968   0.899227836772035   0.942072728083741
   0.190587315711756   0.339338284558640   0.055995295833621
   0.690587315711756   0.339338284558640   0.055995295833621
   0.190587315711756   0.839338284558640   0.055995295833621
   0.690587315711756   0.839338284558640   0.055995295833621
   0.190587315711756   0.339338284558640   0.555995295833621
   0.690587315711756   0.339338284558640   0.555995295833621
   0.190587315711756   0.839338284558640   0.555995295833621
   0.690587315711756   0.839338284558640   0.555995295833621
   0.309412681789617   0.160661703270376   0.444004727634765
   0.809412681789617   0.160661703270376   0.444004727634765
   0.309412681789617   0.660661703270376   0.444004727634765
   0.809412681789617   0.660661703270376   0.444004727634765
   0.309412681789617   0.160661703270376   0.944004727634765
   0.809412681789617   0.160661703270376   0.944004727634765
   0.309412681789617   0.660661703270376   0.944004727634765
   0.809412681789617   0.660661703270376   0.944004727634765
   0.309412721113361   0.089338279939960   0.194004606271527
   0.809412721113361   0.089338279939960   0.194004606271527
   0.309412721113361   0.589338279939960   0.194004606271527
   0.809412721113361   0.589338279939960   0.194004606271527
   0.309412721113361   0.089338279939960   0.694004606271527
   0.809412721113361   0.089338279939960   0.694004606271527
   0.309412721113361   0.589338279939960   0.694004606271527
   0.809412721113361   0.589338279939960   0.694004606271527
   0.190587287038909   0.410661693284575   0.305995367143854
   0.690587287038909   0.410661693284575   0.305995367143854
   0.190587287038909   0.910661693284575   0.305995367143854
   0.690587287038909   0.910661693284575   0.305995367143854
   0.190587287038909   0.410661693284575   0.805995367143854
   0.690587287038909   0.410661693284575   0.805995367143854
   0.190587287038909   0.910661693284575   0.805995367143854
   0.690587287038909   0.910661693284575   0.805995367143854
