 C  H  N 
 1.0000000000000000
     9.6748296546174863    0.0000000000000000    0.0000000000000000
    -4.8374148273087432    8.3786512131673820    0.0000000000000000
     0.0000000000000000    0.0000000000000000   14.1446921112234012
 C   H   N  
  36  36  36
Cartesian
 -0.6547169348088167  1.1340037852319367  1.7680867839194845
 -0.6547169348088034  1.1340037852319342  8.8404328395311680
  5.4921321851850964  7.2446474821167923  5.3042592236896704
  5.4921321851850964  7.2446474821167861 12.3766052793013692
  4.1826977107300953  7.2446474561492220  1.7680862096807124
  4.1826977107300971  7.2446474561492105  8.8404322652923959
  0.6547175340913903  1.1340038302037139  5.3042597664935016
  0.6547175340913933  1.1340038302037119 12.3766058221051960
  1.3094350294114430  0.0000000827084093  1.7680864231634184
  1.3094350294114552  0.0000000827083935  8.8404324787751101
  3.5279802366283217  8.3786511476934518  5.3042595796253860
  3.5279802366283199  8.3786511476934518 12.3766056352370768
  4.1826967770396415  3.9268866549379542  4.1255673312018626
  4.1826967770396450  3.9268866549379484 11.1979133868135410
  5.4921309203809496  1.6588795897340960  0.5893936027139491
  5.4921309203809558  1.6588795897340989  7.6617396583256552
  4.1826989342053009  1.6588796394655789  4.1255667427550859
  4.1826989342053107  1.6588796394655780 11.1979127983667599
  5.4921332992602236  3.9268866072299042  0.5893941957664313
  5.4921332992602325  3.9268866072298989  7.6617402513781272
  6.1468494487503182  2.7928851869917057  4.1255669000806794
  6.1468494487503200  2.7928851869917080 11.1979129556923613
  3.5279805199017455  2.7928849523862103  0.5893940669269044
  3.5279805199017589  2.7928849523862107  7.6617401225386033
 -0.6547156478988061  6.7197716334134476  6.4829523732411047
 -0.6547156478988083  6.7197716334134601 13.5552984288527849
  0.6547184504628035  4.4517646445989731  2.9467787064510054
  0.6547184504628014  4.4517646445989731 10.0191247620627006
 -0.6547182157447354  4.4517646349801252  6.4829518443288210
 -0.6547182157447385  4.4517646349801341 13.5552978999405376
  0.6547163175663695  6.7197716535831278  2.9467792316910177
  0.6547163175663708  6.7197716535831216 10.0191252873027121
  1.3094346616194721  5.5857661439850039  6.4829518914135251
  1.3094346616194705  5.5857661439850146 13.5552979470252239
 -1.3094342006871729  5.5857661193253572  2.9467791539279875
 -1.3094342006871651  5.5857661193253572 10.0191252095396859
  8.4776987395958834  2.0734923925312088  1.7680870774542639
  8.4776987395958958  2.0734923925312043  8.8404331330659485
 -3.6402834777848638  6.3051588898276201  5.3042589217000495
 -3.6402834777848696  6.3051588898276183 12.3766049773117555
  3.6402837014725469  6.3051588399918508  1.7680859726805900
  3.6402837014725518  6.3051588399918419  8.8404320282922662
  1.1971314868238079  2.0734924676835647  5.3042601767493300
  1.1971314868238125  2.0734924676835584 12.3766062323610218
 -2.4431517600467325  8.3786512631933387  1.7680864126993627
 -2.4431517600467196  8.3786512631933245  8.8404324683110573
  7.2805670085474850 -0.0000001028269758  5.3042594367456273
  7.2805670085474858 -0.0000001028269737 12.3766054923573137
  3.6402825367313243  4.8663751622040099  4.1255676185361185
  3.6402825367313234  4.8663751622040063 11.1979136741477969
  6.0345447366725793  0.7193907849238645  0.5893932206251241
  6.0345447366725899  0.7193907849238614  7.6617392762368342
  3.6402852637893894  0.7193908054076757  4.1255664947031994
  3.6402852637894010  0.7193908054076690 11.1979125503148591
  6.0345475640122492  4.8663751327336247  0.5893943385733466
  6.0345475640122599  4.8663751327336255  7.6617403941850455
  7.2316775829037043  2.7928854705349289  4.1255666657618155
  7.2316775829037123  2.7928854705349351 11.1979127213735055
  2.4431524589635805  2.7928852137341615  0.5893940984579801
  2.4431524589635867  2.7928852137341607  7.6617401540696717
 -1.1971294605513609  7.6592604679844616  6.4829526555538299
 -1.1971294605513623  7.6592604679844731 13.5552987111654861
  1.1971326723652100  3.5122761217592906  2.9467785179824952
  1.1971326723652074  3.5122761217592871 10.0191245735942029
 -1.1971324463857029  3.5122761309625687  6.4829518286543237
 -1.1971324463857083  3.5122761309625798 13.5552978842660661
  1.1971300289627340  7.6592604599444565  2.9467793441005701
  1.1971300289627385  7.6592604599444485 10.0191253997122534
  2.3942627149850670  5.5857659186763913  6.4829517823732603
  2.3942627149850639  5.5857659186764010 13.5552978379849627
 -2.3942623161868655  5.5857658685372478  2.9467794759506964
 -2.3942623161868628  5.5857658685372487 10.0191255315623948
  3.4584410540031860  8.3786512923747267  1.7680863503944724
  3.4584410540031967  8.3786512923747214  8.8404324060061619
  1.3789741902011230  0.0000000058663976  5.3042595742267551
  1.3789741902011230  0.0000000058663929 12.3766056298384566
 -4.1479274962369859  7.1844246910434606  1.7680862652298248
 -4.1479274962369752  7.1844246910434499  8.8404323208415079
 -0.6894869272830834  1.1942265616591830  5.3042597286522923
 -0.6894869272830784  1.1942265616591849 12.3766057842639832
  0.6894874965353269  1.1942267498645733  1.7680868414045832
  0.6894874965353397  1.1942267498645631  8.8404328970162691
  4.1479277512824435  7.1844245072157156  5.3042592356593667
  4.1479277512824426  7.1844245072157138 12.3766052912710602
  3.4584407723759845  2.7928825883225064  4.1255670675833267
  3.4584407723759898  2.7928825883225019 11.1979131231949900
  6.2163892193010728  2.7928824543421897  0.5893940313461021
  6.2163892193010835  2.7928824543421911  7.6617400869578063
  5.5269033491740105  1.5986576898525493  4.1255667746688918
  5.5269033491740229  1.5986576898525511 11.1979128302805773
  4.1479288550111342  3.9871111048750705  0.5893943284042632
  4.1479288550111413  3.9871111048750678  7.6617403840159586
  5.5269012755826887  3.9871113328042269  4.1255673766889442
  5.5269012755826878  3.9871113328042296 11.1979134323006289
  4.1479265981254967  1.5986574077802633  0.5893937768215974
  4.1479265981255109  1.5986574077802598  7.6617398324332990
 -1.3789740506329276  5.5857688720562555  6.4829520001340857
 -1.3789740506329300  5.5857688720562662 13.5552980557457907
  1.3789744900634364  5.5857686999248886  2.9467789235595578
  1.3789744900634369  5.5857686999248841 10.0191249791712576
  0.6894862475983530  4.3915400555814852  6.4829517410538076
  0.6894862475983531  4.3915400555814994 13.5552977966655277
 -0.6894880736707127  6.7799936147954920  2.9467792041069543
 -0.6894880736707066  6.7799936147954911 10.0191252597186420
  0.6894886451943104  6.7799937451999668  6.4829520967875141
  0.6894886451943084  6.7799937451999774 13.5552981523991871
 -0.6894860070866111  4.3915399644055562  2.9467787256689317
 -0.6894860070866161  4.3915399644055571 10.0191247812806328
