 N  C  H                                
   1.0000000000000000     
    22.0000000000000000    0.0000000000000000    0.0000000000000000
     0.0000000000000000   22.0000000000000000    0.0000000000000000
     0.0000000000000000    0.0000000000000000   22.0000000000000000
   N    C    H 
     2     4     4
Direct
  0.3215713259793276  0.2693184229778325  0.2212039787172984
  0.1932014012934502  0.2693189406594456  0.2212046576463891
  0.2891637299431693  0.2214556447572704  0.2409427461310614
  0.2256087784808898  0.2214559905510640  0.2409431296893914
  0.2256089973288979  0.3171817188806614  0.2014658902316171
  0.2891639487925630  0.3171813730868820  0.2014655066732800
  0.3144696513618683  0.1823481742556936  0.2570708739678338
  0.2003026587119621  0.1823488028856133  0.2567079413990581
  0.2003030759027595  0.3562891893785718  0.1853377623967631
  0.3144700685687383  0.3562885607487871  0.1853370586018386

  0.00000000E+00  0.00000000E+00  0.00000000E+00
  0.00000000E+00  0.00000000E+00  0.00000000E+00
  0.00000000E+00  0.00000000E+00  0.00000000E+00
  0.00000000E+00  0.00000000E+00  0.00000000E+00
  0.00000000E+00  0.00000000E+00  0.00000000E+00
  0.00000000E+00  0.00000000E+00  0.00000000E+00
  0.00000000E+00  0.00000000E+00  0.00000000E+00
  0.00000000E+00  0.00000000E+00  0.00000000E+00
  0.00000000E+00  0.00000000E+00  0.00000000E+00
  0.00000000E+00  0.00000000E+00  0.00000000E+00
