 C  H 
 1.0000000000000000
    13.2323028774571796    0.0000000000000000    0.0000000000000000
     0.0000000000000000   13.2323028774571814   -0.0000000000000001
     0.0000000000000000   -0.0000000000000000    9.0077138279322018
 C   H  
  80 128
Selective dynamics
Cartesian
  6.5589036887001626  6.5589061463620286  1.7916089332402005   T   T   T
 13.1750551274287400  6.5589061463620286  1.7916089332402005   T   T   T
  6.5589036887001626 13.1750575850906078  1.7916089332402001   T   T   T
 13.1750551274287400 13.1750575850906078  1.7916089332401997   T   T   T
  6.3678216355148205  1.1970629262623931  0.8975242316885785   T   T   T
 12.9839730742433961  1.1970629262623931  0.8975242316885789   T   T   T
  6.3678216355148205  7.8132143649909827  0.8975242316885785   T   T   T
 12.9839730742433961  7.8132143649909827  0.8975242316885788   T   T   T
  1.0004674714939428  1.3888936158814384  9.0019330921989749   T   T   T
  7.6166189102225328  1.3888936158814384  9.0019330921989749   T   T   T
  1.0004674714939428  8.0050450546099992  9.0019330921989749   T   T   T
  7.6166189102225328  8.0050450546099992  9.0019330921989749   T   T   T
  0.1338343031569250  5.3045979277330781  0.8975242316885789   T   T   T
  6.7499857418855020  5.3045979277330781  0.8975242316885788   T   T   T
  0.1338343031569250 11.9207493664616653  0.8975242316885785   T   T   T
  6.7499857418855020 11.9207493664616653  0.8975242316885785   T   T   T
  5.1127647804521681  1.0004699291558095  0.0057804514848462   T   T   T
 11.7289162191807570  1.0004699291558090  0.0057804514848462   T   T   T
  5.1127647804521681  7.6166213678843935  0.0057804514848462   T   T   T
 11.7289162191807570  7.6166213678843935  0.0057804514848462   T   T   T
  1.1970604686005293  0.1338367608187909  8.1101893119952280   T   T   T
  7.8132119073291149  0.1338367608187909  8.1101893119952280   T   T   T
  1.1970604686005293  6.7499881995473698  8.1101893119952280   T   T   T
  7.8132119073291149  6.7499881995473698  8.1101893119952280   T   T   T
  5.5011884671777933  5.1127672381140377  9.0019330921989749   T   T   T
 12.1173399059063591  5.1127672381140377  9.0019330921989749   T   T   T
  5.5011884671777933 11.7289186768426230  9.0019330921989749   T   T   T
 12.1173399059063591 11.7289186768426230  9.0019330921989749   T   T   T
  1.3888911582195735  5.5011909248396602  0.0057804514848462   T   T   T
  8.0050425969481225  5.5011909248396602  0.0057804514848462   T   T   T
  1.3888911582195735 12.1173423635682251  0.0057804514848462   T   T   T
  8.0050425969481225 12.1173423635682251  0.0057804514848462   T   T   T
  5.3045954700712095  6.3678240931766901  8.1101893119952280   T   T   T
 11.9207469087997957  6.3678240931766901  8.1101893119952280   T   T   T
  5.3045954700712095 12.9839755319052621  8.1101893119952280   T   T   T
 11.9207469087997957 12.9839755319052621  8.1101893119952280   T   T   T
  6.5589036887001626  6.5589061463620286  7.2161046104436251   T   T   T
 13.1750551274287400  6.5589061463620286  7.2161046104436251   T   T   T
  6.5589036887001626 13.1750575850906078  7.2161046104436251   T   T   T
 13.1750551274287400 13.1750575850906078  7.2161046104436251   T   T   T
  3.2508279693358761  3.2508304269977426  2.7122476964775344   T   T   T
  9.8669794080644344  3.2508304269977426  2.7122476964775344   T   T   T
  3.2508279693358761  9.8669818657263022  2.7122476964775344   T   T   T
  9.8669794080644344  9.8669818657263022  2.7122476964775344   T   T   T
  3.2508279693358761  3.2508304269977426  6.2954658472063016   T   T   T
  9.8669794080644344  3.2508304269977426  6.2954658472063016   T   T   T
  3.2508279693358761  9.8669818657263022  6.2954658472063016   T   T   T
  9.8669794080644344  9.8669818657263022  6.2954658472063016   T   T   T
  3.4419100225212103  4.5051386456266798  3.6063323980291524   T   T   T
 10.0580614612497872  4.5051386456266798  3.6063323980291524   T   T   T
  3.4419100225212103 11.1212900843552589  3.6063323980291520   T   T   T
 10.0580614612497872 11.1212900843552589  3.6063323980291520   T   T   T
  4.5051361879648120  3.0597483738124005  5.4013811456546792   T   T   T
 11.1212876266933822  3.0597483738124005  5.4013811456546792   T   T   T
  4.5051361879648120  9.6758998125409619  5.4013811456546792   T   T   T
 11.1212876266933822  9.6758998125409619  5.4013811456546792   T   T   T
  3.0597459161505354  1.9965222083687966  3.6063323980291524   T   T   T
  9.6758973548790816  1.9965222083687966  3.6063323980291524   T   T   T
  3.0597459161505354  8.6126736470973562  3.6063323980291524   T   T   T
  9.6758973548790816  8.6126736470973562  3.6063323980291524   T   T   T
  1.9965197507069301  3.4419124801830803  5.4013811456546792   T   T   T
  8.6126711894354866  3.4419124801830803  5.4013811456546792   T   T   T
  1.9965197507069301 10.0580639189116496  5.4013811456546792   T   T   T
  8.6126711894354866 10.0580639189116496  5.4013811456546792   T   T   T
  2.1931127478135073  4.6969693352457194  4.5096373654509501   T   T   T
  8.8092641865420482  4.6969693352457194  4.5096373654509501   T   T   T
  2.1931127478135073 11.3131207739742869  4.5096373654509501   T   T   T
  8.8092641865420482 11.3131207739742869  4.5096373654509501   T   T   T
  4.6969668775838507  4.3085456485200950  4.4980761782328837   T   T   T
 11.3131183163124245  4.3085456485200950  4.4980761782328837   T   T   T
  4.6969668775838507 10.9246970872486830  4.4980761782328829   T   T   T
 11.3131183163124245 10.9246970872486830  4.4980761782328829   T   T   T
  4.3085431908582272  1.8046915187497532  4.5096373654509501   T   T   T
 10.9246946295868224  1.8046915187497532  4.5096373654509501   T   T   T
  4.3085431908582272  8.4208429574783121  4.5096373654509501   T   T   T
 10.9246946295868224  8.4208429574783121  4.5096373654509501   T   T   T
  1.8046890610878894  2.1931152054753773  4.4980761782328837   T   T   T
  8.4208404998164479  2.1931152054753773  4.4980761782328837   T   T   T
  1.8046890610878894  8.8092666442039214  4.4980761782328829   T   T   T
  8.4208404998164479  8.8092666442039214  4.4980761782328829   T   T   T
  0.8141324145715297  0.0742685394558170  2.4441428411188695   T   T   T
  7.4302838533001072  0.0742685394558170  2.4441428411188695   T   T   T
  0.8141324145715297  6.6904199781843987  2.4441428411188704   T   T   T
  7.4302838533001072  6.6904199781843987  2.4441428411188695   T   T   T
  6.2348256552594679  2.0835337987544174  1.5303794418381609   T   T   T
 12.8509770939880514  2.0835337987544174  1.5303794418381604   T   T   T
  6.2348256552594679  8.6996852374829725  1.5303794418381609   T   T   T
 12.8509770939880514  8.6996852374829725  1.5303794418381602   T   T   T
  1.8913238497016747  1.5557450136581776  0.6108085470457156   T   T   T
  8.5074752884302214  1.5557450136581776  0.6108085470457156   T   T   T
  1.8913238497016747  8.1718964523867417  0.6108085470457153   T   T   T
  8.5074752884302214  8.1718964523867417  0.6108085470457154   T   T   T
  0.8747873039337871  2.2798499181402780  8.3732748686895331   T   T   T
  7.4909387426623661  2.2798499181402780  8.3732748686895331   T   T   T
  0.8747873039337871  8.8960013568688279  8.3732748686895331   T   T   T
  7.4909387426623661  8.8960013568688279  8.3732748686895331   T   T   T
  5.6875235241002136  6.4273923145396594  2.4441428411188695   T   T   T
 12.3036749628287811  6.4273923145396594  2.4441428411188704   T   T   T
  5.6875235241002136 13.0435437532682208  2.4441428411188695   T   T   T
 12.3036749628287811 13.0435437532682208  2.4441428411188704   T   T   T
  0.2668302834122765  4.4181270552410608  1.5303794418381602   T   T   T
  6.8829817221408538  4.4181270552410608  1.5303794418381609   T   T   T
  0.2668302834122765 11.0342784939696390  1.5303794418381604   T   T   T
  6.8829817221408538 11.0342784939696390  1.5303794418381607   T   T   T
  4.9459133826754256  1.8913263073635400  8.3969049966380869   T   T   T
 11.5620648214039967  1.8913263073635400  8.3969049966380869   T   T   T
  4.9459133826754256  8.5074777460920821  8.3969049966380869   T   T   T
 11.5620648214039967  8.5074777460920821  8.3969049966380869   T   T   T
  4.2218084781933278  0.8747897615956526  0.6344386749942864   T   T   T
 10.8379599169219052  0.8747897615956526  0.6344386749942866   T   T   T
  4.2218084781933278  7.4909412003242357  0.6344386749942864   T   T   T
 10.8379599169219052  7.4909412003242357  0.6344386749942866   T   T   T
  2.0835313410925491  0.2668327410741415  7.4773341018456652   T   T   T
  8.6996827798210976  0.2668327410741415  7.4773341018456652   T   T   T
  2.0835313410925491  6.8829841798027163  7.4773341018456652   T   T   T
  8.6996827798210976  6.8829841798027163  7.4773341018456652   T   T   T
  4.6103320889700710  4.9459158403372969  0.6108085470457154   T   T   T
 11.2264835276986510  4.9459158403372969  0.6108085470457153   T   T   T
  4.6103320889700710 11.5620672790658645  0.6108085470457154   T   T   T
 11.2264835276986510 11.5620672790658645  0.6108085470457152   T   T   T
  5.6268686347379600  4.2218109358551974  8.3732748686895331   T   T   T
 12.2430200734665231  4.2218109358551974  8.3732748686895331   T   T   T
  5.6268686347379600 10.8379623745837694  8.3732748686895331   T   T   T
 12.2430200734665231 10.8379623745837694  8.3732748686895331   T   T   T
  1.5557425559963118  4.6103345466319388  8.3969049966380869   T   T   T
  8.1718939947248792  4.6103345466319388  8.3969049966380869   T   T   T
  1.5557425559963118 11.2264859853605188  8.3969049966380869   T   T   T
  8.1718939947248792 11.2264859853605188  8.3969049966380869   T   T   T
  2.2798474604784102  5.6268710923998233  0.6344386749942864   T   T   T
  8.8959988992069619  5.6268710923998233  0.6344386749942864   T   T   T
  2.2798474604784102 12.2430225311283909  0.6344386749942860   T   T   T
  8.8959988992069619 12.2430225311283909  0.6344386749942863   T   T   T
  4.4181245975791885  6.2348281129213383  7.4773341018456652   T   T   T
 11.0342760363077783  6.2348281129213383  7.4773341018456652   T   T   T
  4.4181245975791885 12.8509795516499175  7.4773341018456652   T   T   T
 11.0342760363077783 12.8509795516499175  7.4773341018456652   T   T   T
  6.4273898568777934  0.8141348722333952  6.5635707025649603   T   T   T
 13.0435412956063548  0.8141348722333952  6.5635707025649603   T   T   T
  6.4273898568777934  7.4302863109619786  6.5635707025649603   T   T   T
 13.0435412956063548  7.4302863109619786  6.5635707025649603   T   T   T
  0.0742660817939521  5.6875259817620769  6.5635707025649612   T   T   T
  6.6904175205225291  5.6875259817620769  6.5635707025649612   T   T   T
  0.0742660817939521 12.3036774204906507  6.5635707025649612   T   T   T
  6.6904175205225291 12.3036774204906507  6.5635707025649612   T   T   T
  2.3794478047359249  3.3823442588201047  2.0597137885988608   T   T   T
  8.9955992434644774  3.3823442588201047  2.0597137885988599   T   T   T
  2.3794478047359249  9.9984956975486927  2.0597137885988599   T   T   T
  8.9955992434644774  9.9984956975486927  2.0597137885988590   T   T   T
  3.3823418011582396  4.1222105915976721  6.9479997550849681   T   T   T
  9.9984932398868231  4.1222105915976721  6.9479997550849681   T   T   T
  3.3823418011582396 10.7383620303262610  6.9479997550849681   T   T   T
  9.9984932398868231 10.7383620303262610  6.9479997550849681   T   T   T
  4.1222081339358079  3.1193165951753761  2.0597137885988590   T   T   T
 10.7383595726643915  3.1193165951753761  2.0597137885988599   T   T   T
  4.1222081339358079  9.7354680339039152  2.0597137885988608   T   T   T
 10.7383595726643915  9.7354680339039152  2.0597137885988608   T   T   T
  3.1193141375135069  2.3794502623977936  6.9479997550849681   T   T   T
  9.7354655762420474  2.3794502623977936  6.9479997550849681   T   T   T
  3.1193141375135069  8.9956017011263469  6.9479997550849681   T   T   T
  9.7354655762420474  8.9956017011263469  6.9479997550849681   T   T   T
  3.5749060027765647  5.3916095181186998  2.9734771878795727   T   T   T
 10.1910574415051354  5.3916095181186998  2.9734771878795723   T   T   T
  3.5749060027765647 12.0077609568472745  2.9734771878795727   T   T   T
 10.1910574415051354 12.0077609568472745  2.9734771878795723   T   T   T
  5.3916070604568311  2.9267523935570505  6.0342363558042562   T   T   T
 12.0077584991854103  2.9267523935570505  6.0342363558042562   T   T   T
  5.3916070604568311  9.5429038322856066  6.0342363558042562   T   T   T
 12.0077584991854103  9.5429038322856066  6.0342363558042562   T   T   T
  2.9267499358951854  1.1100513358767696  2.9734771878795723   T   T   T
  9.5429013746237388  1.1100513358767696  2.9734771878795727   T   T   T
  2.9267499358951854  7.7262027746053592  2.9734771878795723   T   T   T
  9.5429013746237388  7.7262027746053601  2.9734771878795727   T   T   T
  1.1100488782149036  3.5749084604384294  6.0342363558042562   T   T   T
  7.7262003169434967  3.5749084604384294  6.0342363558042562   T   T   T
  1.1100488782149036 10.1910598991669925  6.0342363558042562   T   T   T
  7.7262003169434967 10.1910598991669925  6.0342363558042562   T   T   T
  1.3022563696057876  4.8638207330224592  3.8930480826720149   T   T   T
  7.9184078083343739  4.8638207330224592  3.8930480826720149   T   T   T
  1.3022563696057876 11.4799721717510437  3.8930480826720149   T   T   T
  7.9184078083343739 11.4799721717510437  3.8930480826720149   T   T   T
  4.8638182753605959  5.1994020267278165  5.1146654610118123   T   T   T
 11.4799697140891741  5.1994020267278165  5.1146654610118123   T   T   T
  4.8638182753605959 11.8155534654563983  5.1146654610118123   T   T   T
 11.4799697140891741 11.8155534654563983  5.1146654610118123   T   T   T
  5.1993995690659514  1.6378401209730169  3.8930480826720149   T   T   T
 11.8155510077945252  1.6378401209730169  3.8930480826720149   T   T   T
  5.1993995690659514  8.2539915597015536  3.8930480826720149   T   T   T
 11.8155510077945252  8.2539915597015536  3.8930480826720149   T   T   T
  1.6378376633111487  1.3022588272676527  5.1146654610118123   T   T   T
  8.2539891020396876  1.3022588272676527  5.1146654610118123   T   T   T
  1.6378376633111487  7.9184102659962434  5.1146654610118123   T   T   T
  8.2539891020396876  7.9184102659962434  5.1146654610118123   T   T   T
  2.3187929153736673  5.5879256375045605  5.1382955889603865   T   T   T
  8.9349443541022158  5.5879256375045605  5.1382955889603874   T   T   T
  2.3187929153736673 12.2040770762331423  5.1382955889603865   T   T   T
  8.9349443541022158 12.2040770762331423  5.1382955889603874   T   T   T
  5.5879231798426927  4.1828654809599337  3.8694179547234469   T   T   T
 12.2040746185712727  4.1828654809599337  3.8694179547234469   T   T   T
  5.5879231798426927 10.7990169196885208  3.8694179547234469   T   T   T
 12.2040746185712727 10.7990169196885208  3.8694179547234469   T   T   T
  4.1828630232980606  0.9137352164909107  5.1382955889603874   T   T   T
 10.7990144620266424  0.9137352164909107  5.1382955889603874   T   T   T
  4.1828630232980606  7.5298866552194976  5.1382955889603874   T   T   T
 10.7990144620266424  7.5298866552194976  5.1382955889603874   T   T   T
  0.9137327588290459  2.3187953730355337  3.8694179547234469   T   T   T
  7.5298841975576281  2.3187953730355337  3.8694179547234469   T   T   T
  0.9137327588290459  8.9349468117640889  3.8694179547234469   T   T   T
  7.5298841975576281  8.9349468117640889  3.8694179547234469   T   T   T
