 C  N  O  H 
 1.0000000000000000
    25.0000000000000000    0.0000000000000000    0.0000000000000000
     0.0000000000000000   25.0000000000000000    0.0000000000000000
     0.0000000000000000    0.0000000000000000   25.0000000000000000
 C   N   O   H  
   3   1   2   7
Cartesian
 11.7035249999999991 13.6907099999999993 12.6545899999999989
 13.6750650000000000 12.3704099999999997 12.5897499999999987
 14.0655950000000001 10.9200599999999994 12.4117199999999990
 10.3364949999999993 13.6313300000000002 12.6250299999999989
 12.3594749999999998 14.7034900000000004 12.8135300000000001
 12.2261249999999997 12.4357800000000012 12.5132499999999993
  9.8440049999999992 14.5083300000000008 12.5400799999999997
  9.8811750000000007 12.7872599999999998 12.3066899999999997
 13.9930650000000014 12.7683299999999988 13.5612999999999992
 14.0987849999999995 13.0126899999999992 11.8079299999999989
 15.1559950000000008 10.8221699999999998 12.4654899999999991
 13.6241050000000001 10.2965099999999996 13.1970999999999989
 13.7331550000000000 10.5413300000000003 11.4387000000000008
