 C  H  O 
 1.0000000000000000
    13.1509999999999998    0.0000000000000000    0.0000000000000000
     0.0000000000000000   15.6920000000000002    0.0000000000000000
     0.0000000000000000    0.0000000000000000   11.5239999999999991
 C   H   O  
  64 128  64
Cartesian
  4.4074191383637222  2.7491362122088323  1.2116433713678858
  8.7435732052189366  1.1738937534913398  4.0926264428945318
 10.9829638186395950  3.1353061559184665  1.2116990689449807
  2.1680341567648598  0.7877122401943376  4.0927152187438516
  5.3982598627085077  2.4250422481753335  2.2875407354545727
  7.7527356866400821  1.4979702271602851  5.1685310916892853
 11.9738220905718045  3.4594289952472312  2.2875782345018707
  1.1771726918611924  0.4635760077810300  5.1685891902446937
  4.4074191383637222  2.7491362122088323  6.9736433713678849
  8.7435732052189366  1.1738937534913398  9.8546264428945296
 10.9829638186395950  3.1353061559184665  6.9736990689449794
  2.1680341567648598  0.7877122401943376  9.8547152187438503
  5.3982598627085077  2.4250422481753335  8.0495407354545723
  7.7527356866400821  1.4979702271602851 10.9305310916892857
 11.9738220905718045  3.4594289952472312  8.0495782345018689
  1.1771726918611924  0.4635760077810300 10.9305891902446923
  4.4074191383637222  6.6721362122088328  1.2116433713678858
  8.7435732052189366  5.0968937534913401  4.0926264428945318
 10.9829638186395950  7.0583061559184674  1.2116990689449807
  2.1680341567648598  4.7107122401943373  4.0927152187438516
  5.3982598627085077  6.3480422481753340  2.2875407354545727
  7.7527356866400821  5.4209702271602849  5.1685310916892853
 11.9738220905718045  7.3824289952472322  2.2875782345018707
  1.1771726918611924  4.3865760077810299  5.1685891902446937
  4.4074191383637222  6.6721362122088328  6.9736433713678849
  8.7435732052189366  5.0968937534913401  9.8546264428945296
 10.9829638186395950  7.0583061559184674  6.9736990689449794
  2.1680341567648598  4.7107122401943373  9.8547152187438503
  5.3982598627085077  6.3480422481753340  8.0495407354545723
  7.7527356866400821  5.4209702271602849 10.9305310916892857
 11.9738220905718045  7.3824289952472322  8.0495782345018689
  1.1771726918611924  4.3865760077810299 10.9305891902446923
  4.4074191383637222 10.5951362122088319  1.2116433713678858
  8.7435732052189366  9.0198937534913419  4.0926264428945318
 10.9829638186395950 10.9813061559184675  1.2116990689449807
  2.1680341567648598  8.6337122401943382  4.0927152187438516
  5.3982598627085077 10.2710422481753341  2.2875407354545727
  7.7527356866400821  9.3439702271602858  5.1685310916892853
 11.9738220905718045 11.3054289952472313  2.2875782345018707
  1.1771726918611924  8.3095760077810326  5.1685891902446937
  4.4074191383637222 10.5951362122088319  6.9736433713678849
  8.7435732052189366  9.0198937534913419  9.8546264428945296
 10.9829638186395950 10.9813061559184675  6.9736990689449794
  2.1680341567648598  8.6337122401943382  9.8547152187438503
  5.3982598627085077 10.2710422481753341  8.0495407354545723
  7.7527356866400821  9.3439702271602858 10.9305310916892857
 11.9738220905718045 11.3054289952472313  8.0495782345018689
  1.1771726918611924  8.3095760077810326 10.9305891902446923
  4.4074191383637222 14.5181362122088320  1.2116433713678858
  8.7435732052189366 12.9428937534913420  4.0926264428945318
 10.9829638186395950 14.9043061559184657  1.2116990689449807
  2.1680341567648598 12.5567122401943383  4.0927152187438516
  5.3982598627085077 14.1940422481753341  2.2875407354545727
  7.7527356866400821 13.2669702271602858  5.1685310916892853
 11.9738220905718045 15.2284289952472314  2.2875782345018707
  1.1771726918611924 12.2325760077810326  5.1685891902446937
  4.4074191383637222 14.5181362122088320  6.9736433713678849
  8.7435732052189366 12.9428937534913420  9.8546264428945296
 10.9829638186395950 14.9043061559184657  6.9736990689449794
  2.1680341567648598 12.5567122401943383  9.8547152187438503
  5.3982598627085077 14.1940422481753341  8.0495407354545723
  7.7527356866400821 13.2669702271602858 10.9305310916892857
 11.9738220905718045 15.2284289952472314  8.0495782345018689
  1.1771726918611924 12.2325760077810326 10.9305891902446923
  4.1945234362298152  3.7279728742408751  5.3086213455818294
  8.9564734041845799  0.1950616924758058  2.4276016367577005
 10.7700691475617827  2.1564654940664316  5.3086788173384285
  2.3809256462485826  1.7665639547610950  2.4276993641154219
  4.9128483170089190  1.8747871376262113  3.0968473188878254
  8.2381457412644554  2.0482216881774971  0.2158413943171071
 11.4884000979769070  0.0866959985235715  3.0968690769874825
  1.6625929680466032  3.8363040014764289  0.2158778888528621
  6.2065183755993507  1.8161292753899521  1.8599785743427950
  6.9444688239846180  2.1068825287551931  4.7409813280763027
 12.7820567752096039  0.1453525380636449  1.8599942864382106
  0.3689432247903967  3.7776558798986821  4.7409934416760944
  5.8576273977212017  3.3464083824738378  2.6650991265073407
  7.2933779631214835  0.5765967215641368  5.5460827963936428
 12.4331806699357266  2.5380783340330324  2.6651489356303979
  0.7178048925187999  1.3849243768846133  5.5461586056828915
  4.1945234362298152  3.7279728742408751 11.0706213455818290
  8.9564734041845799  0.1950616924758058  8.1896016367576987
 10.7700691475617827  2.1564654940664316 11.0706788173384272
  2.3809256462485826  1.7665639547610950  8.1896993641154214
  4.9128483170089190  1.8747871376262113  8.8588473188878254
  8.2381457412644554  2.0482216881774971  5.9778413943171058
 11.4884000979769070  0.0866959985235715  8.8588690769874816
  1.6625929680466032  3.8363040014764289  5.9778778888528610
  6.2065183755993507  1.8161292753899521  7.6219785743427932
  6.9444688239846180  2.1068825287551931 10.5029813280763005
 12.7820567752096039  0.1453525380636449  7.6219942864382100
  0.3689432247903967  3.7776558798986821 10.5029934416760931
  5.8576273977212017  3.3464083824738378  8.4270991265073381
  7.2933779631214835  0.5765967215641368 11.3080827963936432
 12.4331806699357266  2.5380783340330324  8.4271489356303970
  0.7178048925187999  1.3849243768846133 11.3081586056828893
  4.1945234362298152  7.6509728742408756  5.3086213455818294
  8.9564734041845799  4.1180616924758056  2.4276016367577005
 10.7700691475617827  6.0794654940664321  5.3086788173384285
  2.3809256462485826  5.6895639547610957  2.4276993641154219
  4.9128483170089190  5.7977871376262113  3.0968473188878254
  8.2381457412644554  5.9712216881774971  0.2158413943171071
 11.4884000979769070  4.0096959985235712  3.0968690769874825
  1.6625929680466032  7.7593040014764281  0.2158778888528621
  6.2065183755993507  5.7391292753899528  1.8599785743427950
  6.9444688239846180  6.0298825287551931  4.7409813280763027
 12.7820567752096039  4.0683525380636452  1.8599942864382106
  0.3689432247903967  7.7006558798986822  4.7409934416760944
  5.8576273977212017  7.2694083824738378  2.6650991265073407
  7.2933779631214835  4.4995967215641368  5.5460827963936428
 12.4331806699357266  6.4610783340330338  2.6651489356303979
  0.7178048925187999  5.3079243768846140  5.5461586056828915
  4.1945234362298152  7.6509728742408756 11.0706213455818290
  8.9564734041845799  4.1180616924758056  8.1896016367576987
 10.7700691475617827  6.0794654940664321 11.0706788173384272
  2.3809256462485826  5.6895639547610957  8.1896993641154214
  4.9128483170089190  5.7977871376262113  8.8588473188878254
  8.2381457412644554  5.9712216881774971  5.9778413943171058
 11.4884000979769070  4.0096959985235712  8.8588690769874816
  1.6625929680466032  7.7593040014764281  5.9778778888528610
  6.2065183755993507  5.7391292753899528  7.6219785743427932
  6.9444688239846180  6.0298825287551931 10.5029813280763005
 12.7820567752096039  4.0683525380636452  7.6219942864382100
  0.3689432247903967  7.7006558798986822 10.5029934416760931
  5.8576273977212017  7.2694083824738378  8.4270991265073381
  7.2933779631214835  4.4995967215641368 11.3080827963936432
 12.4331806699357266  6.4610783340330338  8.4271489356303970
  0.7178048925187999  5.3079243768846140 11.3081586056828893
  4.1945234362298152 11.5739728742408747  5.3086213455818294
  8.9564734041845799  8.0410616924758056  2.4276016367577005
 10.7700691475617827 10.0024654940664313  5.3086788173384285
  2.3809256462485826  9.6125639547610948  2.4276993641154219
  4.9128483170089190  9.7207871376262105  3.0968473188878254
  8.2381457412644554  9.8942216881774971  0.2158413943171071
 11.4884000979769070  7.9326959985235721  3.0968690769874825
  1.6625929680466032 11.6823040014764281  0.2158778888528621
  6.2065183755993507  9.6621292753899528  1.8599785743427950
  6.9444688239846180  9.9528825287551950  4.7409813280763027
 12.7820567752096039  7.9913525380636452  1.8599942864382106
  0.3689432247903967 11.6236558798986813  4.7409934416760944
  5.8576273977212017 11.1924083824738378  2.6650991265073407
  7.2933779631214835  8.4225967215641369  5.5460827963936428
 12.4331806699357266 10.3840783340330329  2.6651489356303979
  0.7178048925187999  9.2309243768846141  5.5461586056828915
  4.1945234362298152 11.5739728742408747 11.0706213455818290
  8.9564734041845799  8.0410616924758056  8.1896016367576987
 10.7700691475617827 10.0024654940664313 11.0706788173384272
  2.3809256462485826  9.6125639547610948  8.1896993641154214
  4.9128483170089190  9.7207871376262105  8.8588473188878254
  8.2381457412644554  9.8942216881774971  5.9778413943171058
 11.4884000979769070  7.9326959985235721  8.8588690769874816
  1.6625929680466032 11.6823040014764281  5.9778778888528610
  6.2065183755993507  9.6621292753899528  7.6219785743427932
  6.9444688239846180  9.9528825287551950 10.5029813280763005
 12.7820567752096039  7.9913525380636452  7.6219942864382100
  0.3689432247903967 11.6236558798986813 10.5029934416760931
  5.8576273977212017 11.1924083824738378  8.4270991265073381
  7.2933779631214835  8.4225967215641369 11.3080827963936432
 12.4331806699357266 10.3840783340330329  8.4271489356303970
  0.7178048925187999  9.2309243768846141 11.3081586056828893
  4.1945234362298152 15.4969728742408748  5.3086213455818294
  8.9564734041845799 11.9640616924758056  2.4276016367577005
 10.7700691475617827 13.9254654940664313  5.3086788173384285
  2.3809256462485826 13.5355639547610949  2.4276993641154219
  4.9128483170089190 13.6437871376262123  3.0968473188878254
  8.2381457412644554 13.8172216881774972  0.2158413943171071
 11.4884000979769070 11.8556959985235721  3.0968690769874825
  1.6625929680466032 15.6053040014764282  0.2158778888528621
  6.2065183755993507 13.5851292753899529  1.8599785743427950
  6.9444688239846180 13.8758825287551950  4.7409813280763027
 12.7820567752096039 11.9143525380636461  1.8599942864382106
  0.3689432247903967 15.5466558798986831  4.7409934416760944
  5.8576273977212017 15.1154083824738379  2.6650991265073407
  7.2933779631214835 12.3455967215641369  5.5460827963936428
 12.4331806699357266 14.3070783340330330  2.6651489356303979
  0.7178048925187999 13.1539243768846141  5.5461586056828915
  4.1945234362298152 15.4969728742408748 11.0706213455818290
  8.9564734041845799 11.9640616924758056  8.1896016367576987
 10.7700691475617827 13.9254654940664313 11.0706788173384272
  2.3809256462485826 13.5355639547610949  8.1896993641154214
  4.9128483170089190 13.6437871376262123  8.8588473188878254
  8.2381457412644554 13.8172216881774972  5.9778413943171058
 11.4884000979769070 11.8556959985235721  8.8588690769874816
  1.6625929680466032 15.6053040014764282  5.9778778888528610
  6.2065183755993507 13.5851292753899529  7.6219785743427932
  6.9444688239846180 13.8758825287551950 10.5029813280763005
 12.7820567752096039 11.9143525380636461  7.6219942864382100
  0.3689432247903967 15.5466558798986831 10.5029934416760931
  5.8576273977212017 15.1154083824738379  8.4270991265073381
  7.2933779631214835 12.3455967215641369 11.3080827963936432
 12.4331806699357266 14.3070783340330330  8.4271489356303970
  0.7178048925187999 13.1539243768846141 11.3081586056828893
  4.9092228446210697  3.4980676870166563  0.2357289527915004
  8.2417751566963950  0.4249578813900305  3.1167112027407584
 11.4847457877337131  2.3862981048425786  0.2358231062979108
  1.6662482381580388  1.5367158044167628  3.1168381524549211
  3.2316162139148767  2.3636999009829447  1.1931369184470437
  9.9193726506580369  1.5593459106263625  4.0741144003667102
  9.8071801750290373  3.5207944892112213  1.1931558213260056
  3.3438199549395384  0.4022375625003067  4.0741788156929282
  4.9092228446210697  3.4980676870166563  5.9977289527914994
  8.2417751566963950  0.4249578813900305  8.8787112027407566
 11.4847457877337131  2.3862981048425786  5.9978231062979095
  1.6662482381580388  1.5367158044167628  8.8788381524549216
  3.2316162139148767  2.3636999009829447  6.9551369184470424
  9.9193726506580369  1.5593459106263625  9.8361144003667089
  9.8071801750290373  3.5207944892112213  6.9551558213260058
  3.3438199549395384  0.4022375625003067  9.8361788156929286
  4.9092228446210697  7.4210676870166559  0.2357289527915004
  8.2417751566963950  4.3479578813900304  3.1167112027407584
 11.4847457877337131  6.3092981048425791  0.2358231062979108
  1.6662482381580388  5.4597158044167626  3.1168381524549211
  3.2316162139148767  6.2866999009829447  1.1931369184470437
  9.9193726506580369  5.4823459106263623  4.0741144003667102
  9.8071801750290373  7.4437944892112222  1.1931558213260056
  3.3438199549395384  4.3252375625003063  4.0741788156929282
  4.9092228446210697  7.4210676870166559  5.9977289527914994
  8.2417751566963950  4.3479578813900304  8.8787112027407566
 11.4847457877337131  6.3092981048425791  5.9978231062979095
  1.6662482381580388  5.4597158044167626  8.8788381524549216
  3.2316162139148767  6.2866999009829447  6.9551369184470424
  9.9193726506580369  5.4823459106263623  9.8361144003667089
  9.8071801750290373  7.4437944892112222  6.9551558213260058
  3.3438199549395384  4.3252375625003063  9.8361788156929286
  4.9092228446210697 11.3440676870166559  0.2357289527915004
  8.2417751566963950  8.2709578813900322  3.1167112027407584
 11.4847457877337131 10.2322981048425792  0.2358231062979108
  1.6662482381580388  9.3827158044167636  3.1168381524549211
  3.2316162139148767 10.2096999009829439  1.1931369184470437
  9.9193726506580369  9.4053459106263624  4.0741144003667102
  9.8071801750290373 11.3667944892112214  1.1931558213260056
  3.3438199549395384  8.2482375625003073  4.0741788156929282
  4.9092228446210697 11.3440676870166559  5.9977289527914994
  8.2417751566963950  8.2709578813900322  8.8787112027407566
 11.4847457877337131 10.2322981048425792  5.9978231062979095
  1.6662482381580388  9.3827158044167636  8.8788381524549216
  3.2316162139148767 10.2096999009829439  6.9551369184470424
  9.9193726506580369  9.4053459106263624  9.8361144003667089
  9.8071801750290373 11.3667944892112214  6.9551558213260058
  3.3438199549395384  8.2482375625003073  9.8361788156929286
  4.9092228446210697 15.2670676870166560  0.2357289527915004
  8.2417751566963950 12.1939578813900322  3.1167112027407584
 11.4847457877337131 14.1552981048425792  0.2358231062979108
  1.6662482381580388 13.3057158044167636  3.1168381524549211
  3.2316162139148767 14.1326999009829457  1.1931369184470437
  9.9193726506580369 13.3283459106263624  4.0741144003667102
  9.8071801750290373 15.2897944892112214  1.1931558213260056
  3.3438199549395384 12.1712375625003073  4.0741788156929282
  4.9092228446210697 15.2670676870166560  5.9977289527914994
  8.2417751566963950 12.1939578813900322  8.8787112027407566
 11.4847457877337131 14.1552981048425792  5.9978231062979095
  1.6662482381580388 13.3057158044167636  8.8788381524549216
  3.2316162139148767 14.1326999009829457  6.9551369184470424
  9.9193726506580369 13.3283459106263624  9.8361144003667089
  9.8071801750290373 15.2897944892112214  6.9551558213260058
  3.3438199549395384 12.1712375625003073  9.8361788156929286
