 C  H 
 1.0000000000000000
    14.9644401237860620   -0.0000000000000000   -0.0000000000000000
    -0.0000000000000000   18.5522754723366035   -0.0000000000000000
    -0.0000000000000000   -0.0000000000000000   13.9222136047547913
 C   H  
 192 192
Selective dynamics
Cartesian
  7.0231535391674882  1.3208535863556261  6.8839750809024789   T   T   T
 14.5053736010604908  1.3208535863556261  6.8839750809024789   T   T   T
  7.0231535391674882 10.5969913225239196  6.8839750809024789   T   T   T
 14.5053736010604908 10.5969913225239196  6.8839750809024789   T   T   T
  7.0231535391674882  1.3208535863556259 13.8450818832798408   T   T   T
 14.5053736010604908  1.3208535863556259 13.8450818832798408   T   T   T
  7.0231535391674882 10.5969913225239196 13.8450818832798408   T   T   T
 14.5053736010604908 10.5969913225239196 13.8450818832798408   T   T   T
  6.4550793572966478  0.4363561402708895  0.8482498707814911   T   T   T
 13.9372994191896282  0.4363561402708895  0.8482498707814911   T   T   T
  6.4550793572966478  9.7124938764391828  0.8482498707814914   T   T   T
 13.9372994191896282  9.7124938764391828  0.8482498707814914   T   T   T
  6.4550793572966478  0.4363561402708895  7.8093566731588773   T   T   T
 13.9372994191896282  0.4363561402708895  7.8093566731588773   T   T   T
  6.4550793572966478  9.7124938764391828  7.8093566731588773   T   T   T
 13.9372994191896282  9.7124938764391828  7.8093566731588773   T   T   T
  0.5651397829832976  0.8832086142837586  6.0355924059521069   T   T   T
  8.0473598448762864  0.8832086142837586  6.0355924059521069   T   T   T
  0.5651397829832976 10.1593463504520596  6.0355924059521069   T   T   T
  8.0473598448762864 10.1593463504520596  6.0355924059521069   T   T   T
  0.5651397829832976  0.8832086142837589 12.9966992083295043   T   T   T
  8.0473598448762864  0.8832086142837589 12.9966992083295043   T   T   T
  0.5651397829832976 10.1593463504520596 12.9966992083295043   T   T   T
  8.0473598448762864 10.1593463504520596 12.9966992083295043   T   T   T
  6.9170802789097028  8.3929291078618480  0.9255144887945708   T   T   T
 14.3993003408026912  8.3929291078618480  0.9255144887945707   T   T   T
  6.9170802789097028 17.6690668440301302  0.9255144887945708   T   T   T
 14.3993003408026912 17.6690668440301302  0.9255144887945705   T   T   T
  6.9170802789097028  8.3929291078618480  7.8866212911719638   T   T   T
 14.3993003408026912  8.3929291078618480  7.8866212911719638   T   T   T
  6.9170802789097028 17.6690668440301302  7.8866212911719638   T   T   T
 14.3993003408026912 17.6690668440301302  7.8866212911719638   T   T   T
  1.0271407045963581  8.8397815818747159  6.1128570239652040   T   T   T
  8.5093607664893494  8.8397815818747159  6.1128570239652040   T   T   T
  1.0271407045963581 18.1159193180430016  6.1128570239652040   T   T   T
  8.5093607664893494 18.1159193180430016  6.1128570239652040   T   T   T
  1.0271407045963581  8.8397815818747159 13.0739638263425881   T   T   T
  8.5093607664893494  8.8397815818747159 13.0739638263425881   T   T   T
  1.0271407045963581 18.1159193180430016 13.0739638263425881   T   T   T
  8.5093607664893494 18.1159193180430016 13.0739638263425881   T   T   T
  0.4590665227255075  7.9552841357899977  0.0771318138441962   T   T   T
  7.9412865846185241  7.9552841357899977  0.0771318138441962   T   T   T
  0.4590665227255075 17.2314218719582968  0.0771318138441962   T   T   T
  7.9412865846185241 17.2314218719582968  0.0771318138441962   T   T   T
  0.4590665227255075  7.9552841357899977  7.0382386162215713   T   T   T
  7.9412865846185241  7.9552841357899977  7.0382386162215713   T   T   T
  0.4590665227255075 17.2314218719582968  7.0382386162215713   T   T   T
  7.9412865846185241 17.2314218719582968  7.0382386162215713   T   T   T
  4.2001765536720015  5.9589224544397785  6.8839750809024789   T   T   T
 11.6823966155650290  5.9589224544397785  6.8839750809024789   T   T   T
  4.2001765536720015 15.2350601906080794  6.8839750809024789   T   T   T
 11.6823966155650290 15.2350601906080794  6.8839750809024789   T   T   T
  4.2001765536720015  5.9589224544397776 13.8450818832798408   T   T   T
 11.6823966155650290  5.9589224544397776 13.8450818832798408   T   T   T
  4.2001765536720015 15.2350601906080794 13.8450818832798408   T   T   T
 11.6823966155650290 15.2350601906080794 13.8450818832798408   T   T   T
  7.0231535391674882  3.3172152677058437  3.4034216797138006   T   T   T
 14.5053736010604908  3.3172152677058437  3.4034216797138006   T   T   T
  7.0231535391674882 12.5933530038741406  3.4034216797138006   T   T   T
 14.5053736010604908 12.5933530038741406  3.4034216797138006   T   T   T
  7.0231535391674882  3.3172152677058437 10.3645284820911456   T   T   T
 14.5053736010604908  3.3172152677058437 10.3645284820911456   T   T   T
  7.0231535391674882 12.5933530038741406 10.3645284820911456   T   T   T
 14.5053736010604908 12.5933530038741406 10.3645284820911456   T   T   T
  4.2001765536720015  7.9552841357899977  3.4034216797138006   T   T   T
 11.6823966155650290  7.9552841357899977  3.4034216797138006   T   T   T
  4.2001765536720015 17.2314218719582968  3.4034216797138006   T   T   T
 11.6823966155650290 17.2314218719582968  3.4034216797138006   T   T   T
  4.2001765536720015  7.9552841357899977 10.3645284820911456   T   T   T
 11.6823966155650290  7.9552841357899977 10.3645284820911456   T   T   T
  4.2001765536720015 17.2314218719582968 10.3645284820911456   T   T   T
 11.6823966155650290 17.2314218719582968 10.3645284820911456   T   T   T
  3.2820435082209998  3.3172152677058437  0.0771318138441962   T   T   T
 10.7642635701139930  3.3172152677058437  0.0771318138441962   T   T   T
  3.2820435082209998 12.5933530038741406  0.0771318138441962   T   T   T
 10.7642635701139930 12.5933530038741406  0.0771318138441962   T   T   T
  3.2820435082209998  3.3172152677058437  7.0382386162215713   T   T   T
 10.7642635701139930  3.3172152677058437  7.0382386162215713   T   T   T
  3.2820435082209998 12.5933530038741406  7.0382386162215713   T   T   T
 10.7642635701139930 12.5933530038741406  7.0382386162215713   T   T   T
  0.4590665227255075  5.9589224544397776  3.5576852150328837   T   T   T
  7.9412865846185241  5.9589224544397776  3.5576852150328837   T   T   T
  0.4590665227255075 15.2350601906080794  3.5576852150328837   T   T   T
  7.9412865846185241 15.2350601906080794  3.5576852150328837   T   T   T
  0.4590665227255075  5.9589224544397768 10.5187920174102647   T   T   T
  7.9412865846185241  5.9589224544397768 10.5187920174102647   T   T   T
  0.4590665227255075 15.2350601906080794 10.5187920174102647   T   T   T
  7.9412865846185241 15.2350601906080794 10.5187920174102647   T   T   T
  3.2820435082209998  1.3208535863556259  3.5576852150328837   T   T   T
 10.7642635701139930  1.3208535863556259  3.5576852150328837   T   T   T
  3.2820435082209998 10.5969913225239196  3.5576852150328837   T   T   T
 10.7642635701139930 10.5969913225239196  3.5576852150328837   T   T   T
  3.2820435082209998  1.3208535863556261 10.5187920174102647   T   T   T
 10.7642635701139930  1.3208535863556261 10.5187920174102647   T   T   T
  3.2820435082209998 10.5969913225239196 10.5187920174102647   T   T   T
 10.7642635701139930 10.5969913225239196 10.5187920174102647   T   T   T
  4.7682507355428552  5.0744250083550329  0.8482498707814913   T   T   T
 12.2504707974358862  5.0744250083550329  0.8482498707814913   T   T   T
  4.7682507355428543 14.3505627445233497  0.8482498707814914   T   T   T
 12.2504707974358862 14.3505627445233497  0.8482498707814914   T   T   T
  4.7682507355428552  5.0744250083550329  7.8093566731588773   T   T   T
 12.2504707974358862  5.0744250083550329  7.8093566731588773   T   T   T
  4.7682507355428543 14.3505627445233497  7.8093566731588773   T   T   T
 12.2504707974358862 14.3505627445233497  7.8093566731588773   T   T   T
  6.4550793572966478  4.2017127137905836  4.3288032719701652   T   T   T
 13.9372994191896282  4.2017127137905836  4.3288032719701652   T   T   T
  6.4550793572966478 13.4778504499588703  4.3288032719701652   T   T   T
 13.9372994191896282 13.4778504499588703  4.3288032719701652   T   T   T
  6.4550793572966478  4.2017127137905836 11.2899100743475600   T   T   T
 13.9372994191896282  4.2017127137905836 11.2899100743475600   T   T   T
  6.4550793572966478 13.4778504499588703 11.2899100743475600   T   T   T
 13.9372994191896282 13.4778504499588703 11.2899100743475600   T   T   T
  4.7682507355428552  8.8397815818747159  4.3288032719701652   T   T   T
 12.2504707974358862  8.8397815818747159  4.3288032719701652   T   T   T
  4.7682507355428543 18.1159193180430016  4.3288032719701652   T   T   T
 12.2504707974358862 18.1159193180430016  4.3288032719701652   T   T   T
  4.7682507355428552  8.8397815818747159 11.2899100743475600   T   T   T
 12.2504707974358862  8.8397815818747159 11.2899100743475600   T   T   T
  4.7682507355428543 18.1159193180430016 11.2899100743475600   T   T   T
 12.2504707974358862 18.1159193180430016 11.2899100743475600   T   T   T
  2.7139693263501425  4.2017127137905836  6.1128570239652040   T   T   T
 10.1961893882431216  4.2017127137905836  6.1128570239652040   T   T   T
  2.7139693263501425 13.4778504499588703  6.1128570239652040   T   T   T
 10.1961893882431216 13.4778504499588703  6.1128570239652040   T   T   T
  2.7139693263501425  4.2017127137905836 13.0739638263425881   T   T   T
 10.1961893882431216  4.2017127137905836 13.0739638263425881   T   T   T
  2.7139693263501425 13.4778504499588703 13.0739638263425881   T   T   T
 10.1961893882431216 13.4778504499588703 13.0739638263425881   T   T   T
  1.0271407045963581  5.0744250083550329  2.6323036227765098   T   T   T
  8.5093607664893494  5.0744250083550329  2.6323036227765098   T   T   T
  1.0271407045963581 14.3505627445233497  2.6323036227765098   T   T   T
  8.5093607664893494 14.3505627445233497  2.6323036227765098   T   T   T
  1.0271407045963581  5.0744250083550329  9.5934104251538610   T   T   T
  8.5093607664893494  5.0744250083550329  9.5934104251538610   T   T   T
  1.0271407045963581 14.3505627445233497  9.5934104251538610   T   T   T
  8.5093607664893494 14.3505627445233497  9.5934104251538610   T   T   T
  2.7139693263501425  0.4363561402708895  2.6323036227765098   T   T   T
 10.1961893882431216  0.4363561402708895  2.6323036227765098   T   T   T
  2.7139693263501425  9.7124938764391828  2.6323036227765098   T   T   T
 10.1961893882431216  9.7124938764391828  2.6323036227765098   T   T   T
  2.7139693263501425  0.4363561402708895  9.5934104251538610   T   T   T
 10.1961893882431216  0.4363561402708895  9.5934104251538610   T   T   T
  2.7139693263501425  9.7124938764391828  9.5934104251538610   T   T   T
 10.1961893882431216  9.7124938764391828  9.5934104251538610   T   T   T
  3.1759702479632113  5.5212774823679025  6.0355924059521069   T   T   T
 10.6581903098561970  5.5212774823679025  6.0355924059521069   T   T   T
  3.1759702479632113 14.7974152185362211  6.0355924059521069   T   T   T
 10.6581903098561970 14.7974152185362211  6.0355924059521069   T   T   T
  3.1759702479632113  5.5212774823679025 12.9966992083295043   T   T   T
 10.6581903098561970  5.5212774823679025 12.9966992083295043   T   T   T
  3.1759702479632113 14.7974152185362211 12.9966992083295043   T   T   T
 10.6581903098561970 14.7974152185362211 12.9966992083295043   T   T   T
  0.5651397829832976  3.7548602397777135  2.5550390047634259   T   T   T
  8.0473598448762864  3.7548602397777135  2.5550390047634259   T   T   T
  0.5651397829832976 13.0309979759460006  2.5550390047634259   T   T   T
  8.0473598448762864 13.0309979759460006  2.5550390047634259   T   T   T
  0.5651397829832976  3.7548602397777144  9.5161458071407790   T   T   T
  8.0473598448762864  3.7548602397777144  9.5161458071407790   T   T   T
  0.5651397829832976 13.0309979759460006  9.5161458071407790   T   T   T
  8.0473598448762864 13.0309979759460006  9.5161458071407790   T   T   T
  3.1759702479632113  8.3929291078618480  2.5550390047634259   T   T   T
 10.6581903098561970  8.3929291078618480  2.5550390047634259   T   T   T
  3.1759702479632113 17.6690668440301302  2.5550390047634259   T   T   T
 10.6581903098561970 17.6690668440301302  2.5550390047634259   T   T   T
  3.1759702479632113  8.3929291078618480  9.5161458071407790   T   T   T
 10.6581903098561970  8.3929291078618480  9.5161458071407790   T   T   T
  3.1759702479632113 17.6690668440301302  9.5161458071407790   T   T   T
 10.6581903098561970 17.6690668440301302  9.5161458071407790   T   T   T
  4.3062498139297913  3.7548602397777135  0.9255144887945709   T   T   T
 11.7884698758228126  3.7548602397777135  0.9255144887945709   T   T   T
  4.3062498139297913 13.0309979759460006  0.9255144887945708   T   T   T
 11.7884698758228126 13.0309979759460006  0.9255144887945708   T   T   T
  4.3062498139297913  3.7548602397777144  7.8866212911719638   T   T   T
 11.7884698758228126  3.7548602397777144  7.8866212911719638   T   T   T
  4.3062498139297913 13.0309979759460006  7.8866212911719638   T   T   T
 11.7884698758228126 13.0309979759460006  7.8866212911719638   T   T   T
  6.9170802789097028  5.5212774823679025  4.4060678899832517   T   T   T
 14.3993003408026912  5.5212774823679025  4.4060678899832517   T   T   T
  6.9170802789097028 14.7974152185362211  4.4060678899832517   T   T   T
 14.3993003408026912 14.7974152185362211  4.4060678899832517   T   T   T
  6.9170802789097028  5.5212774823679025 11.3671746923606349   T   T   T
 14.3993003408026912  5.5212774823679025 11.3671746923606349   T   T   T
  6.9170802789097028 14.7974152185362211 11.3671746923606349   T   T   T
 14.3993003408026912 14.7974152185362211 11.3671746923606349   T   T   T
  4.3062498139297913  0.8832086142837586  4.4060678899832517   T   T   T
 11.7884698758228126  0.8832086142837586  4.4060678899832517   T   T   T
  4.3062498139297913 10.1593463504520596  4.4060678899832517   T   T   T
 11.7884698758228126 10.1593463504520596  4.4060678899832517   T   T   T
  4.3062498139297913  0.8832086142837585 11.3671746923606349   T   T   T
 11.7884698758228126  0.8832086142837585 11.3671746923606349   T   T   T
  4.3062498139297913 10.1593463504520596 11.3671746923606349   T   T   T
 11.7884698758228126 10.1593463504520596 11.3671746923606349   T   T   T
  6.6708403060390635  2.3445117720422233  6.8233285781326662   T   T   T
 14.1530603679320599  2.3445117720422233  6.8233285781326662   T   T   T
  6.6708403060390635 11.6206495082105157  6.8233285781326662   T   T   T
 14.1530603679320599 11.6206495082105157  6.8233285781326662   T   T   T
  6.6708403060390635  2.3445117720422233 13.7844353805100237   T   T   T
 14.1530603679320599  2.3445117720422233 13.7844353805100237   T   T   T
  6.6708403060390635 11.6206495082105157 13.7844353805100237   T   T   T
 14.1530603679320599 11.6206495082105157 13.7844353805100237   T   T   T
  5.6552405638330487  0.7646452439225645  1.5024309147737123   T   T   T
 13.1374606257260584  0.7646452439225643  1.5024309147737123   T   T   T
  5.6552405638330487 10.0407829800908477  1.5024309147737123   T   T   T
 13.1374606257260584 10.0407829800908477  1.5024309147737123   T   T   T
  5.6552405638330487  0.7646452439225646  8.4635377171510484   T   T   T
 13.1374606257260584  0.7646452439225646  8.4635377171510484   T   T   T
  5.6552405638330487 10.0407829800908477  8.4635377171510484   T   T   T
 13.1374606257260584 10.0407829800908477  8.4635377171510484   T   T   T
  0.9982218283046894  1.5629380863577416  5.3124556970434211   T   T   T
  8.4804418901976639  1.5629380863577416  5.3124556970434211   T   T   T
  0.9982218283046894 10.8390758225260573  5.3124556970434211   T   T   T
  8.4804418901976639 10.8390758225260573  5.3124556970434211   T   T   T
  0.9982218283046894  1.5629380863577420 12.2735624994208212   T   T   T
  8.4804418901976639  1.5629380863577420 12.2735624994208212   T   T   T
  0.9982218283046894 10.8390758225260573 12.2735624994208212   T   T   T
  8.4804418901976639 10.8390758225260573 12.2735624994208212   T   T   T
  6.4839982335883164  7.7131996357878734  1.6486511977032601   T   T   T
 13.9662182954813172  7.7131996357878734  1.6486511977032601   T   T   T
  6.4839982335883164 16.9893373719561431  1.6486511977032596   T   T   T
 13.9662182954813172 16.9893373719561431  1.6486511977032601   T   T   T
  6.4839982335883164  7.7131996357878734  8.6097580000805927   T   T   T
 13.9662182954813172  7.7131996357878734  8.6097580000805927   T   T   T
  6.4839982335883164 16.9893373719561431  8.6097580000805927   T   T   T
 13.9662182954813172 16.9893373719561431  8.6097580000805927   T   T   T
  1.8269794980599601  8.5114924782230599  5.4586759799729672   T   T   T
  9.3091995599529440  8.5114924782230599  5.4586759799729672   T   T   T
  1.8269794980599601 17.7876302143913421  5.4586759799729672   T   T   T
  9.3091995599529440 17.7876302143913421  5.4586759799729672   T   T   T
  1.8269794980599601  8.5114924782230599 12.4197827823503726   T   T   T
  9.3091995599529440  8.5114924782230599 12.4197827823503726   T   T   T
  1.8269794980599601 17.7876302143913421 12.4197827823503708   T   T   T
  9.3091995599529440 17.7876302143913421 12.4197827823503708   T   T   T
  0.8113797558539374  6.9316259501033910  0.1377783166140122   T   T   T
  8.2935998177469195  6.9316259501033910  0.1377783166140122   T   T   T
  0.8113797558539374 16.2077636862716545  0.1377783166140122   T   T   T
  8.2935998177469195 16.2077636862716545  0.1377783166140122   T   T   T
  0.8113797558539374  6.9316259501033910  7.0988851189913813   T   T   T
  8.2935998177469195  6.9316259501033910  7.0988851189913813   T   T   T
  0.8113797558539374 16.2077636862716545  7.0988851189913813   T   T   T
  8.2935998177469195 16.2077636862716545  7.0988851189913813   T   T   T
  4.5524897868004244  6.9825806401263808  6.8233285781326662   T   T   T
 12.0347098486934510  6.9825806401263808  6.8233285781326662   T   T   T
  4.5524897868004244 16.2587183762946772  6.8233285781326662   T   T   T
 12.0347098486934510 16.2587183762946772  6.8233285781326662   T   T   T
  4.5524897868004244  6.9825806401263808 13.7844353805100237   T   T   T
 12.0347098486934510  6.9825806401263808 13.7844353805100237   T   T   T
  4.5524897868004244 16.2587183762946772 13.7844353805100237   T   T   T
 12.0347098486934510 16.2587183762946772 13.7844353805100237   T   T   T
  6.6708403060390635  2.2935570820192464  3.3427751769439902   T   T   T
 14.1530603679320599  2.2935570820192464  3.3427751769439902   T   T   T
  6.6708403060390635 11.5696948181875481  3.3427751769439902   T   T   T
 14.1530603679320599 11.5696948181875481  3.3427751769439902   T   T   T
  6.6708403060390635  2.2935570820192459 10.3038819793213232   T   T   T
 14.1530603679320599  2.2935570820192459 10.3038819793213232   T   T   T
  6.6708403060390635 11.5696948181875481 10.3038819793213232   T   T   T
 14.1530603679320599 11.5696948181875481 10.3038819793213232   T   T   T
  4.5524897868004244  6.9316259501033910  3.3427751769439902   T   T   T
 12.0347098486934510  6.9316259501033910  3.3427751769439902   T   T   T
  4.5524897868004244 16.2077636862716545  3.3427751769439902   T   T   T
 12.0347098486934510 16.2077636862716545  3.3427751769439902   T   T   T
  4.5524897868004244  6.9316259501033910 10.3038819793213232   T   T   T
 12.0347098486934510  6.9316259501033910 10.3038819793213232   T   T   T
  4.5524897868004244 16.2077636862716545 10.3038819793213232   T   T   T
 12.0347098486934510 16.2077636862716545 10.3038819793213232   T   T   T
  2.9297302750925689  2.2935570820192464  0.1377783166140122   T   T   T
 10.4119503369855479  2.2935570820192464  0.1377783166140122   T   T   T
  2.9297302750925689 11.5696948181875481  0.1377783166140122   T   T   T
 10.4119503369855479 11.5696948181875481  0.1377783166140122   T   T   T
  2.9297302750925689  2.2935570820192459  7.0988851189913813   T   T   T
 10.4119503369855479  2.2935570820192459  7.0988851189913813   T   T   T
  2.9297302750925689 11.5696948181875481  7.0988851189913813   T   T   T
 10.4119503369855479 11.5696948181875481  7.0988851189913813   T   T   T
  0.8113797558539372  6.9825806401263808  3.6183317178027004   T   T   T
  8.2935998177469195  6.9825806401263808  3.6183317178027004   T   T   T
  0.8113797558539374 16.2587183762946772  3.6183317178027004   T   T   T
  8.2935998177469195 16.2587183762946772  3.6183317178027004   T   T   T
  0.8113797558539372  6.9825806401263808 10.5794385201800853   T   T   T
  8.2935998177469195  6.9825806401263808 10.5794385201800853   T   T   T
  0.8113797558539374 16.2587183762946772 10.5794385201800853   T   T   T
  8.2935998177469195 16.2587183762946772 10.5794385201800853   T   T   T
  2.9297302750925689  2.3445117720422233  3.6183317178027004   T   T   T
 10.4119503369855479  2.3445117720422233  3.6183317178027004   T   T   T
  2.9297302750925689 11.6206495082105157  3.6183317178027004   T   T   T
 10.4119503369855479 11.6206495082105157  3.6183317178027004   T   T   T
  2.9297302750925689  2.3445117720422233 10.5794385201800853   T   T   T
 10.4119503369855479  2.3445117720422233 10.5794385201800853   T   T   T
  2.9297302750925689 11.6206495082105157 10.5794385201800853   T   T   T
 10.4119503369855479 11.6206495082105157 10.5794385201800853   T   T   T
  5.5680895290064578  5.4027141120067048  1.5024309147737120   T   T   T
 13.0503095908994791  5.4027141120067048  1.5024309147737120   T   T   T
  5.5680895290064578 14.6788518481750074  1.5024309147737118   T   T   T
 13.0503095908994791 14.6788518481750074  1.5024309147737118   T   T   T
  5.5680895290064578  5.4027141120067048  8.4635377171510484   T   T   T
 13.0503095908994791  5.4027141120067048  8.4635377171510484   T   T   T
  5.5680895290064578 14.6788518481750074  8.4635377171510484   T   T   T
 13.0503095908994791 14.6788518481750074  8.4635377171510484   T   T   T
  5.6552405638330487  3.8734236101389068  4.9829843159623906   T   T   T
 13.1374606257260584  3.8734236101389068  4.9829843159623906   T   T   T
  5.6552405638330487 13.1495613463072161  4.9829843159623906   T   T   T
 13.1374606257260584 13.1495613463072161  4.9829843159623906   T   T   T
  5.6552405638330487  3.8734236101389059 11.9440911183397720   T   T   T
 13.1374606257260584  3.8734236101389059 11.9440911183397720   T   T   T
  5.6552405638330487 13.1495613463072161 11.9440911183397720   T   T   T
 13.1374606257260584 13.1495613463072161 11.9440911183397720   T   T   T
  5.5680895290064578  8.5114924782230599  4.9829843159623906   T   T   T
 13.0503095908994791  8.5114924782230599  4.9829843159623906   T   T   T
  5.5680895290064578 17.7876302143913421  4.9829843159623906   T   T   T
 13.0503095908994791 17.7876302143913421  4.9829843159623906   T   T   T
  5.5680895290064578  8.5114924782230599 11.9440911183397720   T   T   T
 13.0503095908994791  8.5114924782230599 11.9440911183397720   T   T   T
  5.5680895290064578 17.7876302143913421 11.9440911183397720   T   T   T
 13.0503095908994791 17.7876302143913421 11.9440911183397720   T   T   T
  1.9141305328865421  3.8734236101389068  5.4586759799729672   T   T   T
  9.3963505947795287  3.8734236101389068  5.4586759799729672   T   T   T
  1.9141305328865421 13.1495613463072161  5.4586759799729672   T   T   T
  9.3963505947795287 13.1495613463072161  5.4586759799729672   T   T   T
  1.9141305328865421  3.8734236101389059 12.4197827823503726   T   T   T
  9.3963505947795287  3.8734236101389059 12.4197827823503726   T   T   T
  1.9141305328865421 13.1495613463072161 12.4197827823503708   T   T   T
  9.3963505947795287 13.1495613463072161 12.4197827823503708   T   T   T
  1.8269794980599601  5.4027141120067048  1.9781225787842889   T   T   T
  9.3091995599529440  5.4027141120067048  1.9781225787842889   T   T   T
  1.8269794980599601 14.6788518481750074  1.9781225787842891   T   T   T
  9.3091995599529440 14.6788518481750074  1.9781225787842891   T   T   T
  1.8269794980599601  5.4027141120067048  8.9392293811616472   T   T   T
  9.3091995599529440  5.4027141120067048  8.9392293811616472   T   T   T
  1.8269794980599601 14.6788518481750074  8.9392293811616472   T   T   T
  9.3091995599529440 14.6788518481750074  8.9392293811616472   T   T   T
  1.9141305328865421  0.7646452439225645  1.9781225787842893   T   T   T
  9.3963505947795287  0.7646452439225643  1.9781225787842893   T   T   T
  1.9141305328865421 10.0407829800908477  1.9781225787842889   T   T   T
  9.3963505947795287 10.0407829800908477  1.9781225787842893   T   T   T
  1.9141305328865421  0.7646452439225646  8.9392293811616472   T   T   T
  9.3963505947795287  0.7646452439225646  8.9392293811616472   T   T   T
  1.9141305328865421 10.0407829800908477  8.9392293811616472   T   T   T
  9.3963505947795287 10.0407829800908477  8.9392293811616472   T   T   T
  2.7428882026418067  6.2010069544418949  5.3124556970434211   T   T   T
 10.2251082645348106  6.2010069544418949  5.3124556970434211   T   T   T
  2.7428882026418067 15.4771446906102046  5.3124556970434211   T   T   T
 10.2251082645348106 15.4771446906102046  5.3124556970434211   T   T   T
  2.7428882026418067  6.2010069544418949 12.2735624994208212   T   T   T
 10.2251082645348106  6.2010069544418949 12.2735624994208212   T   T   T
  2.7428882026418067 15.4771446906102046 12.2735624994208212   T   T   T
 10.2251082645348106 15.4771446906102046 12.2735624994208212   T   T   T
  0.9982218283046894  3.0751307677037261  1.8319022958547395   T   T   T
  8.4804418901976639  3.0751307677037261  1.8319022958547400   T   T   T
  0.9982218283046894 12.3512685038720100  1.8319022958547395   T   T   T
  8.4804418901976639 12.3512685038720100  1.8319022958547400   T   T   T
  0.9982218283046894  3.0751307677037261  8.7930090982320994   T   T   T
  8.4804418901976639  3.0751307677037261  8.7930090982320994   T   T   T
  0.9982218283046894 12.3512685038720100  8.7930090982320994   T   T   T
  8.4804418901976639 12.3512685038720100  8.7930090982320994   T   T   T
  2.7428882026418067  7.7131996357878734  1.8319022958547400   T   T   T
 10.2251082645348106  7.7131996357878734  1.8319022958547395   T   T   T
  2.7428882026418067 16.9893373719561431  1.8319022958547400   T   T   T
 10.2251082645348106 16.9893373719561431  1.8319022958547395   T   T   T
  2.7428882026418067  7.7131996357878734  8.7930090982320994   T   T   T
 10.2251082645348106  7.7131996357878734  8.7930090982320994   T   T   T
  2.7428882026418067 16.9893373719561431  8.7930090982320994   T   T   T
 10.2251082645348106 16.9893373719561431  8.7930090982320994   T   T   T
  4.7393318592511857  3.0751307677037261  1.6486511977032601   T   T   T
 12.2215519211441990  3.0751307677037261  1.6486511977032601   T   T   T
  4.7393318592511857 12.3512685038720100  1.6486511977032601   T   T   T
 12.2215519211441990 12.3512685038720100  1.6486511977032601   T   T   T
  4.7393318592511857  3.0751307677037261  8.6097580000805927   T   T   T
 12.2215519211441990  3.0751307677037261  8.6097580000805927   T   T   T
  4.7393318592511857 12.3512685038720100  8.6097580000805927   T   T   T
 12.2215519211441990 12.3512685038720100  8.6097580000805927   T   T   T
  6.4839982335883164  6.2010069544418949  5.1292045988919348   T   T   T
 13.9662182954813172  6.2010069544418949  5.1292045988919348   T   T   T
  6.4839982335883164 15.4771446906102046  5.1292045988919357   T   T   T
 13.9662182954813172 15.4771446906102046  5.1292045988919357   T   T   T
  6.4839982335883164  6.2010069544418949 12.0903114012693269   T   T   T
 13.9662182954813172  6.2010069544418949 12.0903114012693269   T   T   T
  6.4839982335883164 15.4771446906102046 12.0903114012693269   T   T   T
 13.9662182954813172 15.4771446906102046 12.0903114012693269   T   T   T
  4.7393318592511857  1.5629380863577420  5.1292045988919348   T   T   T
 12.2215519211441990  1.5629380863577420  5.1292045988919348   T   T   T
  4.7393318592511857 10.8390758225260573  5.1292045988919348   T   T   T
 12.2215519211441990 10.8390758225260573  5.1292045988919348   T   T   T
  4.7393318592511857  1.5629380863577416 12.0903114012693269   T   T   T
 12.2215519211441990  1.5629380863577416 12.0903114012693269   T   T   T
  4.7393318592511857 10.8390758225260573 12.0903114012693269   T   T   T
 12.2215519211441990 10.8390758225260573 12.0903114012693269   T   T   T
