 C  N  H                                
   1.0000000000000000     
    22.0000000000000000    0.0000000000000000    0.0000000000000000
     0.0000000000000000   22.0000000000000000    0.0000000000000000
     0.0000000000000000    0.0000000000000000   22.0000000000000000
   C    N    H 
     3     2     4
Direct
  0.2704931159113926  0.1801636464037486  0.2272792278126019
  0.3483670614974272  0.2397999717957546  0.2272614185539723
  0.2985141176591810  0.2774246646704839  0.2272647325260877
  0.2485595172607091  0.2387739080786417  0.2272762585254711
  0.3305274414272859  0.1792688106982823  0.2272705140826687
  0.2045101229774815  0.2515019551076065  0.2272811887445272
  0.2409742472348100  0.1411127553245848  0.2272880931324437
  0.3956566397760426  0.2523691955719158  0.2272530716872083
  0.2936618271647617  0.3260437287126194  0.2268964040259231

  0.00000000E+00  0.00000000E+00  0.00000000E+00
  0.00000000E+00  0.00000000E+00  0.00000000E+00
  0.00000000E+00  0.00000000E+00  0.00000000E+00
  0.00000000E+00  0.00000000E+00  0.00000000E+00
  0.00000000E+00  0.00000000E+00  0.00000000E+00
  0.00000000E+00  0.00000000E+00  0.00000000E+00
  0.00000000E+00  0.00000000E+00  0.00000000E+00
  0.00000000E+00  0.00000000E+00  0.00000000E+00
  0.00000000E+00  0.00000000E+00  0.00000000E+00
