 C  N  H                                
   1.0000000000000000     
    22.0000000000000000    0.0000000000000000    0.0000000000000000
     0.0000000000000000   22.0000000000000000    0.0000000000000000
     0.0000000000000000    0.0000000000000000   22.0000000000000000
   C    N    H 
     3     2     4
Direct
  0.2704931159113929  0.1801636464037477  0.2272792278126003
  0.3483670614974284  0.2397999717957559  0.2272614185539731
  0.2985141176591830  0.2774246646704817  0.2272647325260862
  0.2485595172607108  0.2387739080786425  0.2272762585254716
  0.3305274414272861  0.1792688106982827  0.2272705140826678
  0.2045101229774829  0.2515019551076074  0.2272811887445259
  0.2409742472348101  0.1411127553245826  0.2272880931324414
  0.3956566397760423  0.2523691955719155  0.2272530716872067
  0.2936618271647621  0.3260437287126218  0.2272600403895602

  0.00000000E+00  0.00000000E+00  0.00000000E+00
  0.00000000E+00  0.00000000E+00  0.00000000E+00
  0.00000000E+00  0.00000000E+00  0.00000000E+00
  0.00000000E+00  0.00000000E+00  0.00000000E+00
  0.00000000E+00  0.00000000E+00  0.00000000E+00
  0.00000000E+00  0.00000000E+00  0.00000000E+00
  0.00000000E+00  0.00000000E+00  0.00000000E+00
  0.00000000E+00  0.00000000E+00  0.00000000E+00
  0.00000000E+00  0.00000000E+00  0.00000000E+00
