C H O
        1.0000000000
  11.185602432536049   0.000000410289264  -0.135056176764917
   0.000000316963745  17.365745822584277   0.000001328542217
  -0.418095264118342   0.000000979974088  10.196056519229201
   64   96   64
 Direct
   0.041066692628841   0.465913599248978   0.486755120826395
   0.541066692628841   0.465913599248978   0.486755120826395
   0.041066692628841   0.965913599248978   0.486755120826395
   0.541066692628841   0.965913599248978   0.486755120826395
   0.041066692628841   0.465913599248978   0.986755120826395
   0.541066692628841   0.465913599248978   0.986755120826395
   0.041066692628841   0.965913599248978   0.986755120826395
   0.541066692628841   0.965913599248978   0.986755120826395
   0.458937594961388   0.034083141576080   0.013248318639732
   0.958937594961388   0.034083141576080   0.013248318639732
   0.458937594961388   0.534083141576080   0.013248318639732
   0.958937594961388   0.534083141576080   0.013248318639732
   0.458937594961388   0.034083141576080   0.513248318639732
   0.958937594961388   0.034083141576080   0.513248318639732
   0.458937594961388   0.534083141576080   0.513248318639732
   0.958937594961388   0.534083141576080   0.513248318639732
   0.041066496983777   0.284082731240425   0.236755279884740
   0.541066496983777   0.284082731240425   0.236755279884740
   0.041066496983777   0.784082731240425   0.236755279884740
   0.541066496983777   0.784082731240425   0.236755279884740
   0.041066496983777   0.284082731240425   0.736755279884740
   0.541066496983777   0.284082731240425   0.736755279884740
   0.041066496983777   0.784082731240425   0.736755279884740
   0.541066496983777   0.784082731240425   0.736755279884740
   0.458937306499916   0.215913208491098   0.263248391409611
   0.958937306499916   0.215913208491098   0.263248391409611
   0.458937306499916   0.715913208491098   0.263248391409611
   0.958937306499916   0.715913208491098   0.263248391409611
   0.458937306499916   0.215913208491098   0.763248391409611
   0.958937306499916   0.215913208491098   0.763248391409611
   0.458937306499916   0.715913208491098   0.763248391409611
   0.958937306499916   0.715913208491098   0.763248391409611
   0.129261623732250   0.483031071252652   0.382986048048504
   0.629261623732250   0.483031071252652   0.382986048048504
   0.129261623732250   0.983031071252652   0.382986048048504
   0.629261623732250   0.983031071252652   0.382986048048504
   0.129261623732250   0.483031071252652   0.882986048048504
   0.629261623732250   0.483031071252652   0.882986048048504
   0.129261623732250   0.983031071252652   0.882986048048504
   0.629261623732250   0.983031071252652   0.882986048048504
   0.370742603023598   0.016965722382180   0.117017195248554
   0.870742603023598   0.016965722382180   0.117017195248554
   0.370742603023598   0.516965722382180   0.117017195248554
   0.870742603023598   0.516965722382180   0.117017195248554
   0.370742603023598   0.016965722382180   0.617017195248554
   0.870742603023598   0.016965722382180   0.617017195248554
   0.370742603023598   0.516965722382180   0.617017195248554
   0.870742603023598   0.516965722382180   0.617017195248554
   0.129261425795778   0.266965243202707   0.132986285555478
   0.629261425795777   0.266965243202707   0.132986285555478
   0.129261425795778   0.766965243202707   0.132986285555478
   0.629261425795777   0.766965243202707   0.132986285555478
   0.129261425795778   0.266965243202707   0.632986285555478
   0.629261425795777   0.266965243202707   0.632986285555478
   0.129261425795778   0.766965243202707   0.632986285555478
   0.629261425795777   0.766965243202707   0.632986285555478
   0.370742347087768   0.233030619120472   0.367017343835169
   0.870742347087768   0.233030619120472   0.367017343835169
   0.370742347087768   0.733030619120472   0.367017343835169
   0.870742347087768   0.733030619120472   0.367017343835169
   0.370742347087768   0.233030619120472   0.867017343835169
   0.870742347087768   0.233030619120472   0.867017343835169
   0.370742347087768   0.733030619120472   0.867017343835169
   0.870742347087768   0.733030619120472   0.867017343835169
   0.488530297021929   0.415686296174053   0.452986274767250
   0.988530297021929   0.415686296174053   0.452986274767250
   0.488530297021929   0.915686296174054   0.452986274767250
   0.988530297021929   0.915686296174054   0.452986274767250
   0.488530297021929   0.415686296174053   0.952986274767250
   0.988530297021929   0.415686296174053   0.952986274767250
   0.488530297021929   0.915686296174054   0.952986274767250
   0.988530297021929   0.915686296174054   0.952986274767250
   0.011473966594816   0.084310405522588   0.047017181543352
   0.511473966594816   0.084310405522588   0.047017181543352
   0.011473966594816   0.584310405522588   0.047017181543352
   0.511473966594816   0.584310405522588   0.047017181543352
   0.011473966594816   0.084310405522588   0.547017181543352
   0.511473966594816   0.084310405522588   0.547017181543352
   0.011473966594816   0.584310405522588   0.547017181543352
   0.511473966594816   0.584310405522588   0.547017181543352
   0.488530181867394   0.334310063615517   0.202986464050079
   0.988530181867394   0.334310063615517   0.202986464050079
   0.488530181867394   0.834310063615517   0.202986464050079
   0.988530181867394   0.834310063615517   0.202986464050079
   0.488530181867394   0.334310063615517   0.702986464050079
   0.988530181867394   0.334310063615517   0.702986464050079
   0.488530181867394   0.834310063615517   0.702986464050079
   0.988530181867394   0.834310063615517   0.702986464050079
   0.011473632317797   0.165685892601880   0.297017194790028
   0.511473632317798   0.165685892601880   0.297017194790028
   0.011473632317797   0.665685892601880   0.297017194790028
   0.511473632317798   0.665685892601880   0.297017194790028
   0.011473632317797   0.165685892601880   0.797017194790028
   0.511473632317798   0.165685892601880   0.797017194790028
   0.011473632317797   0.665685892601880   0.797017194790028
   0.511473632317798   0.665685892601880   0.797017194790028
   0.091441191397004   0.447582791138386   0.075840106508325
   0.591441191397004   0.447582791138386   0.075840106508325
   0.091441191397004   0.947582791138386   0.075840106508325
   0.591441191397004   0.947582791138386   0.075840106508325
   0.091441191397004   0.447582791138386   0.575840106508326
   0.591441191397004   0.447582791138386   0.575840106508326
   0.091441191397004   0.947582791138386   0.575840106508326
   0.591441191397004   0.947582791138386   0.575840106508326
   0.408563133675356   0.052413943032353   0.424163271029554
   0.908563133675356   0.052413943032353   0.424163271029554
   0.408563133675356   0.552413943032353   0.424163271029554
   0.908563133675356   0.552413943032353   0.424163271029554
   0.408563133675356   0.052413943032353   0.924163271029554
   0.908563133675356   0.052413943032353   0.924163271029554
   0.408563133675356   0.552413943032353   0.924163271029554
   0.908563133675356   0.552413943032353   0.924163271029554
   0.091440991141562   0.302413466023393   0.325840326499803
   0.591440991141562   0.302413466023393   0.325840326499803
   0.091440991141562   0.802413466023393   0.325840326499803
   0.591440991141562   0.802413466023393   0.325840326499803
   0.091440991141562   0.302413466023393   0.825840326499803
   0.591440991141562   0.302413466023393   0.825840326499803
   0.091440991141562   0.802413466023393   0.825840326499803
   0.591440991141562   0.802413466023393   0.825840326499803
   0.408562834683464   0.197582497993699   0.174163357860299
   0.908562834683464   0.197582497993699   0.174163357860299
   0.408562834683464   0.697582497993699   0.174163357860299
   0.908562834683464   0.697582497993699   0.174163357860299
   0.408562834683464   0.197582497993699   0.674163357860299
   0.908562834683464   0.197582497993699   0.674163357860299
   0.408562834683464   0.697582497993699   0.674163357860299
   0.908562834683464   0.697582497993699   0.674163357860299
   0.270543495126672   0.439737429680000   0.307838202395996
   0.770543495126672   0.439737429680000   0.307838202395996
   0.270543495126672   0.939737429680000   0.307838202395996
   0.770543495126672   0.939737429680000   0.307838202395996
   0.270543495126672   0.439737429680000   0.807838202395996
   0.770543495126672   0.439737429680000   0.807838202395996
   0.270543495126672   0.939737429680000   0.807838202395996
   0.770543495126672   0.939737429680000   0.807838202395996
   0.229460676500965   0.060259312688257   0.192165030718715
   0.729460676500965   0.060259312688257   0.192165030718715
   0.229460676500965   0.560259312688257   0.192165030718715
   0.729460676500965   0.560259312688257   0.192165030718715
   0.229460676500965   0.060259312688257   0.692165030718715
   0.729460676500965   0.060259312688257   0.692165030718715
   0.229460676500965   0.560259312688257   0.692165030718715
   0.729460676500965   0.560259312688257   0.692165030718715
   0.270543329861573   0.310258851290131   0.057838371282654
   0.770543329861573   0.310258851290131   0.057838371282654
   0.270543329861573   0.810258851290131   0.057838371282654
   0.770543329861573   0.810258851290131   0.057838371282654
   0.270543329861573   0.310258851290131   0.557838371282654
   0.770543329861573   0.310258851290131   0.557838371282654
   0.270543329861573   0.810258851290131   0.557838371282654
   0.770543329861573   0.810258851290131   0.557838371282654
   0.229460464230877   0.189736998230254   0.442165196107690
   0.729460464230877   0.189736998230254   0.442165196107690
   0.229460464230877   0.689736998230254   0.442165196107690
   0.729460464230877   0.689736998230254   0.442165196107690
   0.229460464230877   0.189736998230254   0.942165196107690
   0.729460464230877   0.189736998230254   0.942165196107690
   0.229460464230877   0.689736998230254   0.942165196107690
   0.729460464230877   0.689736998230254   0.942165196107690
   0.122444520661313   0.038484773899973   0.307365810559837
   0.622444520661313   0.038484773899973   0.307365810559837
   0.122444520661313   0.538484773899973   0.307365810559837
   0.622444520661313   0.538484773899973   0.307365810559837
   0.122444520661313   0.038484773899973   0.807365810559837
   0.622444520661313   0.038484773899973   0.807365810559837
   0.122444520661313   0.538484773899973   0.807365810559837
   0.622444520661313   0.538484773899973   0.807365810559837
   0.377559692150582   0.461512027292418   0.192637607095370
   0.877559692150582   0.461512027292418   0.192637607095370
   0.377559692150582   0.961512027292418   0.192637607095370
   0.877559692150582   0.961512027292418   0.192637607095370
   0.377559692150582   0.461512027292418   0.692637607095370
   0.877559692150582   0.461512027292418   0.692637607095370
   0.377559692150582   0.961512027292418   0.692637607095370
   0.877559692150582   0.961512027292418   0.692637607095370
   0.122444359188523   0.211511506337690   0.057366047142047
   0.622444359188522   0.211511506337690   0.057366047142047
   0.122444359188523   0.711511506337690   0.057366047142047
   0.622444359188522   0.711511506337690   0.057366047142047
   0.122444359188523   0.211511506337690   0.557366047142047
   0.622444359188522   0.211511506337690   0.557366047142047
   0.122444359188523   0.711511506337690   0.557366047142047
   0.622444359188522   0.711511506337690   0.557366047142047
   0.377559457198641   0.288484280776966   0.442637720955993
   0.877559457198641   0.288484280776966   0.442637720955993
   0.377559457198641   0.788484280776966   0.442637720955993
   0.877559457198641   0.788484280776966   0.442637720955993
   0.377559457198641   0.288484280776966   0.942637720955993
   0.877559457198641   0.288484280776966   0.942637720955993
   0.377559457198641   0.788484280776966   0.942637720955993
   0.877559457198641   0.788484280776966   0.942637720955993
   0.216282070855815   0.429443074426234   0.380801819465607
   0.716282070855816   0.429443074426234   0.380801819465607
   0.216282070855815   0.929443074426234   0.380801819465607
   0.716282070855816   0.929443074426234   0.380801819465607
   0.216282070855815   0.429443074426234   0.880801819465607
   0.716282070855816   0.429443074426234   0.880801819465607
   0.216282070855815   0.929443074426234   0.880801819465607
   0.716282070855816   0.929443074426234   0.880801819465607
   0.283722065274663   0.070553674711285   0.119201410625936
   0.783722065274663   0.070553674711285   0.119201410625936
   0.283722065274663   0.570553674711285   0.119201410625936
   0.783722065274663   0.570553674711285   0.119201410625936
   0.283722065274663   0.070553674711285   0.619201410625936
   0.783722065274663   0.070553674711285   0.619201410625936
   0.283722065274663   0.570553674711285   0.619201410625936
   0.783722065274663   0.570553674711285   0.619201410625936
   0.216281891852280   0.320553230361750   0.130801966978144
   0.716281891852280   0.320553230361750   0.130801966978144
   0.216281891852280   0.820553230361750   0.130801966978144
   0.716281891852280   0.820553230361750   0.130801966978144
   0.216281891852280   0.320553230361750   0.630801966978144
   0.716281891852280   0.320553230361750   0.630801966978144
   0.216281891852280   0.820553230361750   0.630801966978144
   0.716281891852280   0.820553230361750   0.630801966978144
   0.283721854691737   0.179442661635767   0.369201530095576
   0.783721854691737   0.179442661635767   0.369201530095576
   0.283721854691737   0.679442661635767   0.369201530095576
   0.783721854691737   0.679442661635767   0.369201530095576
   0.283721854691737   0.179442661635767   0.869201530095576
   0.783721854691737   0.179442661635767   0.869201530095576
   0.283721854691737   0.679442661635767   0.869201530095576
   0.783721854691737   0.679442661635767   0.869201530095576
