 H  C  O 
 1.0000000000000000
    25.0000000000000000    0.0000000000000000    0.0000000000000000
     0.0000000000000000   25.0000000000000000    0.0000000000000000
     0.0000000000000000    0.0000000000000000   25.0000000000000000
 H   C   O  
   6   4   4
Cartesian
 14.1197500000000016 15.4659999999999993 11.9350999999999985
 12.7815500000000011  9.5339999999999989 13.8791000000000011
 12.4307499999999997 11.3322000000000003 10.9642999999999997
 10.7797499999999999 11.3503000000000007 11.5851000000000006
 11.2669500000000014 13.6463000000000001 10.8768999999999991
 11.2708500000000011 13.6662999999999997 12.6406999999999989
 11.7960500000000010 11.7352999999999987 11.7658999999999985
 11.7960500000000010 13.2625999999999991 11.7637999999999998
 13.2003500000000003 13.8414999999999999 11.7381999999999991
 12.2700500000000012 11.1574999999999989 13.0883000000000003
 14.2202500000000001 13.2258999999999993 11.5090000000000003
 13.1899499999999996 15.1800999999999995 11.9844000000000008
 12.4162500000000016 11.7735999999999983 14.1231000000000009
 12.4978499999999997  9.8189999999999991 12.9921000000000006
