 N  C  H 
 1.0000000000000000
    25.0000000000000000    0.0000000000000000    0.0000000000000000
     0.0000000000000000   25.0000000000000000    0.0000000000000000
     0.0000000000000000    0.0000000000000000   25.0000000000000000
 N   C   H  
   2   1   2
Cartesian
 12.2499649999999995 12.7610500000000009 11.7786300000000015
 12.3692449999999994 11.6208400000000012 14.0088800000000013
 12.3403050000000007 12.1232800000000012 12.9579800000000027
 11.9731150000000000 12.1827600000000018 10.9911200000000022
 13.0268850000000000 13.3791600000000024 11.5625800000000005
