 C  H  N 
 1.0000000000000000
    22.0000000000000000    0.0000000000000000    0.0000000000000000
     0.0000000000000000   22.0000000000000000    0.0000000000000000
     0.0000000000000000    0.0000000000000000   22.0000000000000000
 C   H   N  
   3   3   3
Cartesian
  4.9195428397492211  5.0799331310791640  4.9999378435477526
  6.8027708015865844  6.3230958091356424  5.0000259839316943
  4.7845463586615242  7.3324377264276626  5.0000161725211640
  7.8850871410645746  6.3879608910832362  5.0000531571433600
  4.4345594795819610  4.1101871455293368  4.9998916626787704
  4.1872133793665176  8.2373186300936254  5.0000351801664422
  6.2624318869592441  5.0936355195296432  4.9999691447280457
  4.1249684525036709  6.1626105032808045  4.9999587537458288
  6.1194596605266982  7.4792206438408817  5.0000521015369426
