 O  N  C  H 
 1.0000000000000000
     7.1467343761335220    0.0000014587605866   -0.0237264741041560
    -0.0000022829871282    9.0021246330427438    0.0000140175748446
    -1.6000837818375306   -0.0000183391031961   12.0862743582151673
 O   N   C   H  
   8   4  32  36
Cartesian
  0.7810951282544265  8.2759109935297097  2.6416342273534950
  1.9922267632524275  3.7748479270987296  3.3896584041773936
  4.7655531534526494  0.7261967991723332  9.4209276398754955
  3.5544215735980638  5.2272597681565793  8.6729034670420653
  1.1874400881784630  4.4133031607771667  9.7518644745801293
 -0.0142016904219589  8.9143670041280547  8.3657050798076700
  4.3592082684514821  4.5888045834624327  2.3106974830349203
  5.5608499632240758  0.0877406911075650  3.6968567895983799
 -0.9958219467150053  5.0357815173580445 10.1357689373098072
  2.1690622760966733  0.5347229475937960  7.9817881872533363
  6.5424702930460095  3.9663262347320249  1.9267929505137227
  3.3775859862086066  8.4673848467724060  4.0807737560091715
 -0.8921751854926484  5.8416345486209105 11.3072073335042163
  2.0654149708347664  1.3405794440487346  6.8103522288751810
  6.4388235061784389  3.1604732185723794  0.7553545500310012
  3.4812333149462797  7.6615283182484086  5.2522096920913501
  1.8223589621073277  5.8527855655259255  0.0762698190496893
  0.9509644245707127  1.3517142644072477  5.9550156490219655
  3.7242893368931571  3.1493221887735445 11.9862920938985180
  4.5956838850135977  7.6503934551202919  6.1075462413423418
  1.8227851361116787  6.6678281119440301  1.2122195283456065
  0.9505376851183109  2.1667602492313405  4.8190684042958960
  3.7238631522893830  2.3342796517328637 10.8503423767595102
  4.5961106397846274  6.8353474441445901  7.2434934647993883
  0.7157412215982899  7.4728869576003074  1.5120220580020716
  2.0575812097964623  2.9718204602842886  4.5192681048610632
  4.8309070761721333  1.5292208304298416 10.5505398130619117
  3.4890671079035545  6.0302872500845988  7.5432937805898934
  6.7400800385313806  7.4473173867667803  0.6488865076282436
  3.1799769457926743  2.9462473411248813  5.3586768780892413
 -1.1934317193436987  1.5547904193736721 11.4136753340994357
  2.3666713508946260  6.0558604051399927  6.7038850361074154
  5.1395722815184026  6.6373243874025247 11.6012515761872184
  3.1804014959821414  2.1362692330192679  6.4925837004255520
  0.4070760485450337  2.3647834102642920  0.4613102685229363
  2.3662467859941883  6.8658385383122136  5.5699782330088494
 -0.0245839092271224  4.3882783863504873  9.4359477898498785
  1.1978223504353542  8.8893419227881605  8.6816215642822598
  5.5712322741548652  4.6138293530440189  2.6266141338782951
  4.3488259129135480  0.1127658325577047  3.3809403462435812
 -0.5078281435439682  3.6061651815626226  8.2231603146946384
  1.6810671077736064  8.1072254404284934  9.8944067125387107
  6.0544765428372855  5.3959425382285238  3.8394016107470343
  3.8655811461140703  0.8948823397629838  2.1681552201062750
 -0.1005878366938749  8.6624828040820887  2.8768846969790407
  2.8739095619053510  4.1614207155105145  3.1544089080637678
  5.6472361068987516  0.3396249606175210  9.1856771741102108
  2.6727387740472879  4.8406870063300396  8.9081530050558548
  2.6804753008037672  5.2352952239166717 -0.1378837539001272
  0.0928483823055339  0.7342229317282049  6.1691675457113018
  2.8661729898105803  3.7668125137233401 12.2004456904642105
  5.4537999343850840  8.2678847754452249  5.8933943360541399
  2.6800493862151962  6.6545690403119258  1.8753155477412311
  0.0932733138136330  2.1535028185799328  4.1559725079090635
  2.8665988862682332  2.3475387133764758 10.1872463776237883
  5.4533750347650729  6.8486048341082997  7.9065893320841978
  5.8781328129916952  8.0634146092566894  0.8714117773686839
  4.0419238660365098  3.5623455909976252  5.1361533044555099
 -0.3314844831686007  0.9386932248294276 11.1911500331428382
  1.5047244256884278  5.4397621604037560  6.9264086096346755
  4.2678731734235766  6.6172711832759044 10.9563591144949228
  4.0521007537280163  2.1162144262800027  7.1374759136798920
  1.2787751749633203  2.3848366343254703  1.1062027042370355
  1.4945475145021021  6.8858933725933751  4.9250860373045535
  5.2132805641601880  4.9842710802460708  9.7164713770199036
  3.1066942104628361  0.4832103246043578  8.3773590091712045
  0.3333677892910089  4.0178366610942042  2.3460904933778313
  2.4399540398336255  8.5188974946595319  3.6852029637807284
  0.0679277835940924  3.9010764408267615  7.3429282873811559
  1.1053108377918777  8.4021335688394867 10.7746395643191271
  5.4787207038787740  5.1010311921610594  4.7196336682361917
  4.4413372013642904  0.5999740059625156  1.2879222965796144
 -0.3147773658029534  2.5434127012174885  8.3866049888415031
  1.4880172283271011  7.0444732895512399  9.7309588080995741
  5.8614256752163083  6.4586950118816340  3.6759569982422367
  4.0586313028907401  1.9576344525989688  2.3316030176443427
  5.5767466211969303  3.7440896768990219  7.9982718810398490
  2.7432265868024914  8.2451487491683420 10.0955691846841873
 -0.0300981984486588  5.2580181063296854  4.0642899590589261
  2.8034216036013979  0.7569592617014773  1.9669929244927256
