 C  H  O                                
   1.0000000000000000     
    19.0000000000000000    0.0000000000000000    0.0000000000000000
     0.0000000000000000   19.0000000000000000    0.0000000000000000
     0.0000000000000000    0.0000000000000000   19.0000000000000000
   C    H    O 
     6     8     2
Direct
  0.2719625998276456  0.3148506120981409  0.3692179668437703
  0.3513649404509636  0.3254127058355749  0.3546894547898631
  0.3290553223852939  0.4498848333241767  0.4065821803152900
  0.2664475770694636  0.4506389877224066  0.3545561829105210
  0.3816559849451338  0.3905015368199471  0.3916072384958511
  0.2277646002001603  0.3798732245452499  0.3508987754411237
  0.3823374640056869  0.2795922168655238  0.3700136805386833
  0.3598288917416070  0.3328536127431647  0.2980092267370082
  0.2638240244715533  0.3043780660531183  0.4254654550307890
  0.3094426740975180  0.4417116828877496  0.4603238940727437
  0.3573903295543488  0.4997921361810924  0.4068877889157108
  0.2857264786195088  0.4619462009349178  0.3012632999088112
  0.2283896168343276  0.4916718076297215  0.3672687323679042
  0.2507120018905837  0.2696895290503889  0.3408888139607882
  0.4435250378640063  0.3947620566505066  0.4080012617486801
  0.1659040349895733  0.3755892117109241  0.3340592058171777

  0.00000000E+00  0.00000000E+00  0.00000000E+00
  0.00000000E+00  0.00000000E+00  0.00000000E+00
  0.00000000E+00  0.00000000E+00  0.00000000E+00
  0.00000000E+00  0.00000000E+00  0.00000000E+00
  0.00000000E+00  0.00000000E+00  0.00000000E+00
  0.00000000E+00  0.00000000E+00  0.00000000E+00
  0.00000000E+00  0.00000000E+00  0.00000000E+00
  0.00000000E+00  0.00000000E+00  0.00000000E+00
  0.00000000E+00  0.00000000E+00  0.00000000E+00
  0.00000000E+00  0.00000000E+00  0.00000000E+00
  0.00000000E+00  0.00000000E+00  0.00000000E+00
  0.00000000E+00  0.00000000E+00  0.00000000E+00
  0.00000000E+00  0.00000000E+00  0.00000000E+00
  0.00000000E+00  0.00000000E+00  0.00000000E+00
  0.00000000E+00  0.00000000E+00  0.00000000E+00
  0.00000000E+00  0.00000000E+00  0.00000000E+00
