 C  H 
 1.0000000000000000
    25.0000000000000000    0.0000000000000000    0.0000000000000000
     0.0000000000000000   25.0000000000000000    0.0000000000000000
     0.0000000000000000    0.0000000000000000   20.0000000000000000
 C   H  
  10   8
Cartesian
  4.9409009190931741  4.1868907962029924  5.0002976467075042
  6.3203246849152803  4.1874484657847981  5.0000974574866888
  7.0503471199712031  5.4090985117172092  5.0002076770979222
  6.3223451019140668  6.6524248215869193  5.0005334342685384
  4.8997216873975979  6.6136410286676641  5.0007331308595866
  4.2241761260561033  5.4109571724208543  5.0006183578596941
  8.4729705344386446  5.4478823049473011  5.0000079800180384
  7.0523675375968269  7.8740748671188801  5.0006436536568923
  8.4317913033596437  7.8746325370986439  5.0004434638488409
  9.1485160962030569  6.6505661608747157  5.0001227522490437
  9.0203490553325025  4.5121815268610490  4.9997628973031025
  4.3980460140372966  3.2501584027866008  5.0002106769525945
  6.8684482258036228  3.2521839173189120  4.9998523416168688
  4.3523431663368841  7.5493418067544731  5.0009782151817124
  3.1416170141793076  5.3959645871084359  5.0007728889797862
  6.5042439980436910  8.8093394161176182  5.0008887687981387
  8.9746462071576456  8.8113649312926441  5.0005304348389075
 10.2310752080034320  6.6655587453120022  4.9999682221694401
