 C  O  N  H 
 1.0000000000000000
    10.8043343720034901   -0.0000161458034650   -0.0884500728979770
    -0.0000273235195170   18.3064844543262950   -0.0000026929162450
    -3.9896415993962409    0.0000025693609830   20.8719374364165162
 C   O   N   H  
  72  72  72 216
Cartesian
  0.8633352293248445  0.5299263431388196  1.7853973326522752
  4.4647800106432456  0.5299209743405319  1.7559139826526899
  8.0662248103751502  0.5299155780733223  1.7264306181925868
  0.8633215624973377  9.6831685909860337  1.7853959758634996
  4.4647663298290663  9.6831632456892649  1.7559126323174243
  8.0662111476126608  9.6831578107525456  1.7264292687516076
 -0.4665452804020185  0.5299271893599226  8.7427097669859091
  3.1348995079638069  0.5299217900712713  8.7132264302834912
  6.7363442747064921  0.5299164879488220  8.6837430472168098
 -0.4665589495472294  9.6831694270633122  8.7427084251529639
  3.1348858217040405  9.6831640805284760  8.7132250760611871
  6.7363306269888916  9.6831586604541311  8.6837417234764995
 -1.7964258512513136  0.5299280529657810 15.7000223290221825
  1.8050189421135219  0.5299226687945550 15.6705389661272783
  5.4064637218351228  0.5299173050705418 15.6410556153522489
 -1.7964395034357044  9.6831702713097592 15.7000209672698254
  1.8050052755508428  9.6831649120300547 15.6705376132868412
  5.4064500646779159  9.6831595368975023 15.6410542530530225
  1.4082246661976918  8.6232206233746442  5.1424638623436287
  5.0096694545499796  8.6232152239060849  5.1129805257390295
  8.6111142757055319  8.6232097772524625  5.0834971647153697
  1.4082110409023816 17.7764627374259696  5.1424625412360481
  5.0096558036236569 17.7764574250372789  5.1129791799968798
  8.6111006101247405 17.7764520052344288  5.0834958225788274
  0.0783441249975802  8.6232214303637313 12.0997764050942713
  3.6797889114630715  8.6232160579042034 12.0702930467579304
  7.2812337108011738  8.6232106554756989 12.0408096905463768
  0.0783304752854820 17.7764636319366112 12.0997750565762221
  3.6797752642910631 17.7764582528421826 12.0702916986212774
  7.2812200483835108 17.7764528900556265 12.0408083359835238
 -1.2515364293593967  8.6232222996691092 19.0570889235208654
  2.3499083749103207  8.6232168995451843 19.0276055532463992
  5.9513531553841297  8.6232115369022342 18.9981221992602016
 -1.2515500807643782 17.7764644769849269 19.0570876021481084
  2.3498947081936672 17.7764591230634359 19.0276042199494455
  5.9513394900966476 17.7764537472359763 18.9981208761400850
  0.2724509509101768  5.1065453069822100  1.6785522977395715
  3.8738957131463239  5.1065398616490141  1.6490689409905561
  7.4753405193910130  5.1065345052334701  1.6195855725289721
  0.2724373039712163 14.2597875471977211  1.6785509311049398
  3.8738820767263591 14.2597821359212471  1.6490675829266686
  7.4753268843183456 14.2597767966685236  1.6195842300035943
 -1.0574295900106230  5.1065461444717881  8.6358647714692296
  2.5440151989741246  5.1065407628208952  8.6063814189745731
  6.1454599853547283  5.1065353658472645  8.5768980565276856
 -1.0574432335030222 14.2597884140217044  8.6358634271635850
  2.5440015529393407 14.2597830278868720  8.6063800746551546
  6.1454463337254079 14.2597776316717404  8.5768967248433690
 -2.3873101242693164  5.1065469952874771 15.5931772487806040
  1.2141346721032280  5.1065416294226686 15.5636938949015775
  4.8155794543566115  5.1065362287234910 15.5342105370445385
 -2.3873237820562845 14.2597892316878898 15.5931759021565171
  1.2141210288506499 14.2597838997004978 15.5636925480782295
  4.8155658019801608 14.2597784739181801 15.5342091868518004
  1.9991091600165967  4.0465971597992132  5.2493096940883666
  5.6005539488476144  4.0465917582631681  5.2198263214072398
  9.2019987444207203  4.0465864069387152  5.1903429808948482
  1.9990954826907945 13.1998393616427165  5.2493083539922507
  5.6005402783904579 13.1998339918057166  5.2198249972934283
  9.2019850766259008 13.1998286437771508  5.1903416559645983
  0.6692286107337315  4.0465980136612796 12.2066222071260189
  4.2706734048969910  4.0465926435031490 12.1771388524289357
  7.8721181875803161  4.0465872539981032 12.1476555070374470
  0.6692149512045060 13.1998402637559291 12.2066208764387731
  4.2706597378090860 13.1998348696145005 12.1771375162735023
  7.8721045270714889 13.1998295041803058 12.1476541782478975
 -0.6606519350917645  4.0465988277423230 19.1639346740111876
  2.9407928543016917  4.0465934387866414 19.1344513116092223
  6.5422376499263946  4.0465880726942620 19.1049679594785005
 -0.6606655939935028 13.1998410724152802 19.1639333345614773
  2.9407791898077482 13.1998356727192423 19.1344499763284830
  6.5422239857240241 13.1998302992984140 19.1049666163631855
  1.3967814076063236  8.5481809526321531  1.7341831920902817
  4.9982262217439093  8.5481755226352156  1.7046998290989641
  8.5996709911631477  8.5481701838367741  1.6752164751190599
  1.3967677550142061 17.7014231640873696  1.7341818417743555
  4.9982125568534137 17.7014177597956781  1.7046984821174989
  8.5996573333281940 17.7014124072470800  1.6752151270344511
  0.0669009194955201  8.5481817023957571  8.6914956725529269
  3.6683457087335016  8.5481763251523386  8.6620123148520776
  7.2697905027505314  8.5481709337915373  8.6325289565867998
  0.0668872439045871 17.7014239603712511  8.6914943305083536
  3.6683320573839988 17.7014185344927100  8.6620109654191229
  7.2697768130633156 17.7014132212368835  8.6325276189173259
 -1.2629796342431043  8.5481826160491678 15.6488081421649952
  2.3384651666802037  8.5481772133995104 15.6193247832826643
  5.9399099508494295  8.5481718450412298 15.5898414269750738
 -1.2629932894730063 17.7014248333637099 15.6488067909974866
  2.3384514890822174 17.7014194790090897 15.6193234382019739
  5.9398962961606161 17.7014140620412626 15.5898400760179729
  0.8747789998510920  0.6049661890323201  5.1936783449189301
  4.4762237780296870  0.6049608327958790  5.1641949894747130
  8.0776685794960077  0.6049554290650000  5.1347116287729264
  0.8747652981633148  9.7582084993693243  5.1936770119656135
  4.4762101144030852  9.7582030672541489  5.1641936446007586
  8.0776548906103436  9.7581977152182109  5.1347102903322366
 -0.4551015548397764  0.6049670979143140 12.1509908215756717
  3.1463432293298896  0.6049617306932702 12.1215074639269993
  6.7477880222608961  0.6049563437769694 12.0920241079168989
 -0.4551152309216033  9.7582093575378099 12.1509894773187650
  3.1463295680873395  9.7582039576576491 12.1215061174256462
  6.7477743543452968  9.7581985868548351 12.0920227605748050
 -1.7849820618859829  0.6049679082245829 19.1083032857738679
  1.8164626940809665  0.6049625994366506 19.0788199378806418
  5.4179075009287363  0.6049571840748542 19.0493365750293329
 -1.7849957363388849  9.7582101596897797 19.1083019469989779
  1.8164490461730718  9.7582047944248043 19.0788185922578073
  5.4178938225801998  9.7581994436824235 19.0493352371892222
 -0.2610041886119644  3.9715555337535902  1.7297661789323076
  3.3404406052246682  3.9715501572596268  1.7002828220178201
  6.9418853840030277  3.9715447515579148  1.6707994683918408
 -0.2610178602526994 13.1247977425418405  1.7297648399717582
  3.3404269495388128 13.1247923993945399  1.7002814778067625
  6.9418717589320735 13.1247870566010167  1.6707981165919485
 -1.5908847007501710  3.9715564295541426  8.6870786521299372
  2.0105600998028077  3.9715510683975275  8.6575952933371987
  5.6120048674459344  3.9715456413555645  8.6281119416202703
 -1.5908983747232348 13.1247986302387432  8.6870773091237119
  2.0105464319897242 13.1247932829935667  8.6575939495766843
  5.6119912281247188 13.1247879105619312  8.6281105888326302
 -2.9207652804332080  3.9715571905562492 15.6443911406700966
  0.6806795090494906  3.9715518066155879 15.6149077835881531
  4.2821243075795223  3.9715464409399091 15.5854244245000260
 -2.9207789467192247 13.1247994067804772 15.6443897954610822
  0.6806658383427122 13.1247940142603081 15.6149064392268038
  4.2821106368439974 13.1247886491735244 15.5854230805780531
  2.5325647106753091  5.1815867735111452  5.1980963951156118
  6.1340094964041088  5.1815813843851926  5.1686130411957887
  9.7354542905603694  5.1815760068095020  5.1391296801353912
  2.5325510250239054 14.3348289449688782  5.1980950511718476
  6.1339958380516393 14.3348236146869574  5.1686116907079978
  9.7354406352471319 14.3348182450850921  5.1391283290124159
  1.2026841896920464  5.1815876521223068 12.1554088683506336
  4.8041289879483475  5.1815822851609585 12.1259255084408686
  8.4055737911496902  5.1815769296236187 12.0964421476124766
  1.2026705397289927 14.3348299022725758 12.1554075176993432
  4.8041153314918450 14.3348245228657820 12.1259241606450843
  8.4055601440189829 14.3348191866503338 12.0964407969516046
 -0.1271963710235720  5.1815884481700261 19.1127213492032340
  3.4742484191238141  5.1815830634707840 19.0832379924694635
  7.0756932168013797  5.1815776983231228 19.0537546326544351
 -0.1272100387370305 14.3348306603321927 19.1127200027240285
  3.4742347602641037 14.3348252956788436 19.0832366435411380
  7.0756795517187241 14.3348199178723554 19.0537532863155228
  0.8949802719597910  1.4375723908353422  0.8056452706574484
  4.4964250585560723  1.4375670174289348  0.7761619143165197
  8.0978698447242436  1.4375616398851876  0.7466785636432154
  0.8949666070669658 10.5908146092617130  0.8056439317292017
  4.4964113984608707 10.5908092234242908  0.7761605758242860
  8.0978561815991075 10.5908038571308492  0.7466772216630997
 -0.4349002527670903  1.4375733017715622  7.7629576716073370
  3.1665445274899402  1.4375679347487664  7.7334743225223459
  6.7679893238335032  1.4375625332668986  7.7039909758584306
 -0.4349139146856542 10.5908155183220245  7.7629563268600661
  3.1665308698439114 10.5908101343628740  7.7334729877160351
  6.7679756613408530 10.5908047682704645  7.7039896119506395
 -1.7647807851637416  1.4375741115887080 14.7202701938889149
  1.8366639971788605  1.4375687450422849 14.6907868421431971
  5.4381087937369657  1.4375633506746099 14.6613034815584466
 -1.7647944457142970 10.5908163457034554 14.7202688340900014
  1.8366503396880649 10.5908109687964807 14.6907854839731851
  5.4380951345539774 10.5908055785733737 14.6613021252968068
  1.3765786213562627  7.7155748166559848  6.1222162971073608
  4.9780234161857084  7.7155694307011551  6.0927329283897702
  8.5794681959450863  7.7155640769581417  6.0632495709203624
  1.3765649559239848 16.8688170743215942  6.1222149175192238
  4.9780097563497856 16.8688116607144174  6.0927315704677989
  8.5794545418516925 16.8688062916013948  6.0632482098987728
  0.0466980824104770  7.7155756855496405 13.0795287766532642
  3.6481428776113662  7.7155702942265965 13.0500454160459078
  7.2495876615159025  7.7155649269784643 13.0205620610241812
  0.0466844249810538 16.8688179156886129 13.0795274104146859
  3.6481292206210809 16.8688125272829375 13.0500440484107934
  7.2495740090915257 16.8688071449462740 13.0205606981694721
 -1.2831824298046677  7.7155765311971587 20.0368412104627147
  2.3182623609990740  7.7155711502645996 20.0073578512093704
  5.9197071534523609  7.7155657651280176 19.9778744955507506
 -1.2831960936162723 16.8688187647237022 20.0368398568558028
  2.3182487029310179 16.8688133654544465 20.0073565065340411
  5.9196934960640650 16.8688079814534042 19.9778731433105108
  0.2407995976055153  6.0141930297973349  2.6583026598262083
  3.8422443895190770  6.0141876583438130  2.6288193114690430
  7.4436891752898005  6.0141822608685267  2.5993359499582893
  0.2407859371570793 15.1674352454510721  2.6583013025471058
  3.8422307261796735 15.1674298622234751  2.6288179465841091
  7.4436755164597148 15.1674244647692547  2.5993345719370740
 -1.0890809355009035  6.0141939160146167  9.6156151659336295
  2.5123638488895779  6.0141885165767643  9.5861318050957056
  6.1138086351044683  6.0141831323428896  9.5566484588051779
 -1.0890946037149434 15.1674361220039575  9.6156138198919852
  2.5123501825565020 15.1674307266469306  9.5861304575941571
  6.1137949761005661 15.1674253512739110  9.5566470987005001
 -2.4189614777741957  6.0141947470571768 16.5729276501585971
  1.1824833058282338  6.0141893511448883 16.5434442949052603
  4.7839280975366556  6.0141839754710489 16.5139609412419830
 -2.4189751370950461 15.1674369743362689 16.5729262979061325
  1.1824696397841876 15.1674315597554994 16.5434429407403414
  4.7839144363052917 15.1674261975353879 16.5139595901409919
  2.0307596250606768  3.1389492077837429  4.2695595256204131
  5.6322044212726201  3.1389438292008265  4.2400761580304982
  9.2336492084470656  3.1389384344212332  4.2105927957344411
  2.0307459599897331 12.2921914450255905  4.2695581902927398
  5.6321907531727051 12.2921860557925289  4.2400748175338201
  9.2336355388545108 12.2921806578700714  4.2105914551872150
  0.7008791022811358  3.1389500563859087 11.2268719694535459
  4.3023238940298594  3.1389446720105507 11.1973886065369914
  7.9037686807170831  3.1389392850133073 11.1679052513205317
  0.7008654401370593 12.2921922752595467 11.2268706100906179
  4.3023102329793765 12.2921868998284243 11.1973872537101204
  7.9037550197897239 12.2921815045987390 11.1679038903962109
 -0.6290014325887177  3.1389509618834834 18.1841845034639498
  2.9724433596191893  3.1389455874116221 18.1547011482783809
  6.5738881439207146  3.1389401948828013 18.1252177936857564
 -0.6290150986227423 12.2921931808781260 18.1841831516123840
  2.9724296953299190 12.2921878118252526 18.1546997978055664
  6.5738744777282712 12.2921824187276485 18.1252164482604066
  0.4770441270037818  2.3556013512578531  0.9646005889365913
  4.0784889169305680  2.3555959715133494  0.9351172316581264
  7.6799337156084277  2.3555905727441342  0.9056338707111993
  0.4770304772705857 11.5088435540197924  0.9645992383695635
  4.0784752607444323 11.5088381862806255  0.9351158839106021
  7.6799200543471171 11.5088327971296351  0.9056325231788980
 -0.8528364055739899  2.3556022007114490  7.9219130737459249
  2.7486083675678938  2.3555968580746085  7.8924297208648406
  6.3500532071914426  2.3555913717700765  7.8629463490291887
 -0.8528500772212667 11.5088444512212380  7.9219117294368546
  2.7485947267128017 11.5088390418596873  7.8924283680855734
  6.3500395060385824 11.5088336840765848  7.8629450146272113
 -2.1827169547682082  2.3556030980722960 14.8792255538409997
  1.4187278514401453  2.3555976819837898 14.8497421906339628
  5.0201726308308494  2.3555923250446020 14.8202588377451043
 -2.1827306112183043 11.5088453133958577 14.8792242064463434
  1.4187141819093927 11.5088399258262513 14.8497408478883894
  5.0201589765390651 11.5088345350039720 14.8202574894351464
  1.7945125606423875  6.7975447536656217  5.9632615310477277
  5.3959573257600759  6.7975394320421003  5.9337781834895642
  8.9974021130691710  6.7975340537526945  5.9042948240038742
  1.7944988480292337 15.9507871156517087  5.9632602076998040
  5.3959436611796292 15.9507816858094849  5.9337768449618080
  8.9973884353867142 15.9507763380955172  5.9042934904456112
  0.4646320125854471  6.7975456478137835 12.9205740150346404
  4.0660767981242909  6.7975402800712921 12.8910906608568645
  7.6675215893508755  6.7975348936511581 12.8616073013713290
  0.4646183360536840 15.9507879167576760 12.9205726775227454
  4.0660631317568772 15.9507825264928353 12.8910893197187946
  7.6675079268015436 15.9507771326573327 12.8616059603787249
 -0.8652485411426480  6.7975465483926980 19.8778865037206813
  2.7361962496960159  6.7975411645880657 19.8484031453258112
  6.3376410567556078  6.7975357454912588 19.8189197823150920
 -0.8652622234918297 15.9507888345310089 19.8778851678783646
  2.7361825983394965 15.9507833831645769 19.8484018000549085
  6.3376273773426020 15.9507780260411973 19.8189184465501995
  0.6587317027411270  6.9322236618897550  2.4993469179225851
  4.2601765099619096  6.9322183159782833  2.4698635563719988
  7.8616213075311467  6.9322129493638522  2.4403801953576014
  0.6587180452714624 16.0854659076989854  2.4993455677325165
  4.2601628335244044 16.0854605192836608  2.4698622116403754
  7.8616075992530412 16.0854550856179692  2.4403788615832109
 -0.6711488492806920  6.9322244749509654  9.4566594011356848
  2.9302959402842994  6.9322190891685862  9.4271760450281548
  6.5317407548068687  6.9322137575765979  9.3976926792028568
 -0.6711625126068946 16.0854667071234338  9.4566580514008187
  2.9302822721800346 16.0854613132857907  9.4271746964593213
  6.5317270623259800 16.0854559261796020  9.3976913398371842
 -2.0010293352739050  6.9322254338909906 16.4139718650580981
  1.6004154557298229  6.9322200518870902 16.3844885071137085
  5.2018602443465394  6.9322146654798171 16.3550051500571740
 -2.0010429986893201 16.0854676631040903 16.4139705172729720
  1.6004017907855479 16.0854622773764326 16.3844871585456815
  5.2018465830291989 16.0854568996553233 16.3550038010580963
  1.6128255048725211  2.2209194606651406  4.4285157234130752
  5.2142703054353881  2.2209140987436022  4.3990323644799396
  8.8157150875568320  2.2209086990777855  4.3695490094868177
  1.6128118706699222 11.3741617370938304  4.4285143699966838
  5.2142566409256768 11.3741563123766003  4.3990310204407086
  8.8157014206594315 11.3741509060256849  4.3695476654777430
  0.2829449663392234  2.2209203041169729 11.3858282082636642
  3.8843897483032315  2.2209149033441129 11.3563448531005253
  7.4858345328542555  2.2209095080746413 11.3268614976434421
  0.2829312913823961 11.3741624999056583 11.3858268669957035
  3.8843760832075471 11.3741571206287748 11.3563435097422012
  7.4858208552894547 11.3741516980195652 11.3268601579733197
 -1.0469355492212165  2.2209211969536389 18.3431406782328921
  2.5545092423925202  2.2209158163700207 18.3136573199349328
  6.1559540252733784  2.2209104163911082 18.2841739645958050
 -1.0469492069253166 11.3741634264020401 18.3431393317816003
  2.5544955786419101 11.3741580348048466 18.3136559751439414
  6.1559403697507706 11.3741526506882344 18.2841726171053480
  0.0191245730231414  1.2184107471520178  6.8717189786515203
  3.6205693902254956  1.2184053510626818  6.8422355719736618
  7.2220141326808438  1.2183999974341617  6.8127523012832185
  0.0191109228654469 10.3716529704518141  6.8717176137512439
  3.6205557089601532 10.3716475931684098  6.8422342615951486
  7.2220005069252791 10.3716422047804144  6.8127508911307668
 -1.3107559374647868  1.2184116026549121 13.8290314029944650
  2.2906888459979982  1.2184062241156550 13.7995480602875702
  5.8921336427637625  1.2184008392881258 13.7700646894499972
 -1.3107696055161893 10.3716538316134805 13.8290300734242031
  2.2906751883529535 10.3716484486718077 13.7995467097955373
  5.8921199715879604 10.3716430712691654 13.7700633649029971
 -2.6406364780430449  1.2184124628765256 20.7863438949317931
  0.9608083166284553  1.2184070783931045 20.7568605290618393
  4.5622531043541237  1.2184016981825936 20.7273771784765408
 -2.6406501461068004 10.3716546961387550 20.7863425657127934
  0.9607946513406503 10.3716493119689410 20.7568591934044662
  4.5622394446452974 10.3716439268394076 20.7273758332580691
  2.2524350095648398  7.9347383717753042  0.0561425393775286
  5.8538797983844786  7.9347329900184080  0.0266591872141163
  9.4553245740853828  7.9347276175483747 -0.0028241424880081
  2.2524213685733598 17.0879805846892410  0.0561411460752795
  5.8538661263075200 17.0879752215708400  0.0266578506757837
  9.4553109271018556 17.0879698352133680 -0.0028255255032208
  0.9225544504130930  7.9347392400602210  7.0134550727357672
  4.5239992619391538  7.9347338465613753  6.9839716736790987
  8.1254440626316526  7.9347284572176244  6.9544883024866939
  0.9225408351507830 17.0879814327067621  7.0134536295737986
  4.5239855992792348 17.0879760681153527  6.9839703160446192
  8.1254304101097024 17.0879706742634880  6.9544869265020504
 -0.4073260595706244  7.9347400855345551 13.9707675030069005
  3.1941187322506570  7.9347347024453754 13.9412841402975349
  6.7955635275960606  7.9347293176069025 13.9118007771786090
 -0.4073397130044036 17.0879823039183982 13.9707661373075975
  3.1941050689765484 17.0879769260113363 13.9412827925112470
  6.7955498585163525 17.0879715451062921 13.9117994381087726
 -0.2132256960736416  5.7950295783169796  3.5495412016206118
  3.3882190796457157  5.7950241869867813  3.5200578686017261
  6.9896638675751079  5.7950188050725888  3.4905745201469291
 -0.2132393651867725 14.9482718035001145  3.5495398764489390
  3.3882054306549207 14.9482664240701215  3.5200565072351719
  6.9896502418779942 14.9482610556669382  3.4905731148253296
 -1.5431062097294139  5.7950304425036743 10.5068536419540628
  2.0583385861071828  5.7950250653302984 10.4773702744074750
  5.6597833592855222  5.7950196731019190 10.4478869475271257
 -1.5431198660379446 14.9482726731619877 10.5068522898789549
  2.0583249332808284 14.9482672973377131 10.4773689166781754
  5.6597697222822969 14.9482619135108266 10.4478855595266502
 -2.8729867775979909  5.7950312814060103 17.4641661842429450
  0.7284580185640478  5.7950259033212097 17.4346828177355313
  4.3299028102593233  5.7950205212734920 17.4051994566014017
 -2.8730004398185929 14.9482735077788185 17.4641648439628518
  0.7284443621514142 14.9482681342177592 17.4346814672418482
  4.3298891469638194 14.9482627476503307 17.4051981175213193
  2.4847855337401796  3.3581111103118677  3.3783210216698860
  6.0862303091543133  3.3581057210876972  3.3488376930606139
  9.6876751116187432  3.3581003458927943  3.3193543138035619
  2.4847718527045575 12.5113533222219040  3.3783197110211924
  6.0862166573483165 12.5113479501770168  3.3488363269180219
  9.6876614633395839 12.5113425776595388  3.3193529420694232
  1.1549049978087915  3.3581119662147199 10.3356335037983680
  4.7563497949369493  3.3581065883658363 10.3061501348667583
  8.3577945949174843  3.3581012107732744 10.2766667587167468
  1.1548913486737558 12.5113541993787418 10.3356321358660335
  4.7563361366699217 12.5113488158895780 10.3061487822654883
  8.3577809475232918 12.5113434459902262 10.2766653863268544
 -0.1749755458652709  3.3581128096112254 17.2929459990228587
  3.4264692424585772  3.3581074256525119 17.2634626460084704
  7.0279140449619319  3.3581020508154285 17.2339792662744280
 -0.1749892071252924 12.5113550360705670 17.2929446539435538
  3.4264555857289758 12.5113496543597815 17.2634612919521686
  7.0279003822152486 12.5113442762132703 17.2339779226833940
  0.3304610919887464  0.8547526881856413  2.6897805339796745
  3.9319058812581686  0.8547473081203627  2.6602971774170512
  7.5333506768158092  0.8547419215309886  2.6308138133752483
  0.3304474415013590 10.0079949058057434  2.6897791720830271
  3.9318922305754587 10.0079895271078492  2.6602958156920087
  7.5333370185347892 10.0079841475587941  2.6308124609451418
 -0.9994194805753946  0.8547535677219837  9.6470930794464831
  2.6020252926748837  0.8547482040032762  9.6176097434943486
  6.2034701347019121  0.8547427747848571  9.5881263173721454
 -0.9994331498521503 10.0079958040589165  9.6470917423076070
  2.6020116589455409 10.0079904074395127  9.6176083574061764
  6.2034564340364087 10.0079850398990668  9.5881250220555128
 -2.3292999832159600  0.8547544118467880 16.6044055010380376
  1.2721448176976173  0.8547490200648942 16.5749221289403721
  4.8735896016777822  0.8547436446719212 16.5454387802526277
 -2.3293136479012841 10.0079966398119122 16.6044041609866611
  1.2721311442856083 10.0079912567587108 16.5749208007143451
  4.8735759417593627 10.0079858683382579 16.5454374338074111
  1.9410987515949092  8.2983943181699988  4.2380806363033514
  5.5425435195879649  8.2983889576990926  4.2085973089372457
  9.1439882988200765  8.2983835860720472  4.1791139671402222
  1.9410850201046053 17.4516366052915863  4.2380793852091285
  5.5425298452568557 17.4516311920923073  4.2085959792312897
  9.1439746133427899 17.4516258316002251  4.1791126544492112
  0.6112182201374794  8.2983951814390480 11.1953931061814842
  4.2126630057033170  8.2983898029967005 11.1659097557460019
  7.8141077943245483  8.2983844229850252 11.1364263999805129
  0.6112045340049538 17.4516374265334946 11.1953917938626173
  4.2126493309848021 17.4516320384948038 11.1659084275373477
  7.8140941257498060 17.4516266526450039 11.1364250650402212
 -0.7186623223829511  8.2983960480762669 18.1527055942502749
  2.8827824646746176  8.2983906668896026 18.1232222431487209
  6.4842272768146145  8.2983852676193877 18.0937388552210017
 -0.7186760059336750 17.4516382953519376 18.1527042752208452
  2.8827688180377340 17.4516328811990142 18.1232208730487550
  6.4842136006447983 17.4516275083434778 18.0937375265734808
  0.8053257672196504  5.4313718588026969  0.7741695054744506
  4.4067705796253618  5.4313664964692165  0.7446861162405983
  8.0082153687321309  5.4313611140198601  0.7152027632991435
  0.8053121036358224 14.5846140867853471  0.7741681649467707
  4.4067568922680751 14.5846087022716144  0.7446848092395888
  8.0082016520893031 14.5846032938631502  0.7152014953615587
 -0.5245547783658960  5.4313727029545147  7.7314820009676897
  3.0768900055273223  5.4313673154478375  7.7019986511617624
  6.6783348215603260  5.4313619552251060  7.6725152585696206
 -0.5245684426939885 14.5846149267863456  7.7314806584588291
  3.0768763374659720 14.5846095355969929  7.7019973145041218
  6.6783211313935666 14.5846041558748656  7.6725139520522871
 -1.8544352668162267  5.4313735981038640 14.6887944159532680
  1.7470095211646390  5.4313682130999252 14.6593110611442494
  5.3484543113469458  5.4313628311822999 14.6298277039064022
 -1.8544489274354492 14.5846158255773961 14.6887930684204182
  1.7469958521916711 14.5846104332747277 14.6593097257457696
  5.3484406505044451 14.5846050584524107 14.6298263574447098
  1.4662342999164155  3.7217703331881151  6.1536924152115668
  5.0676790957550537  3.7217649589909199  6.1242090520783972
  8.6691238784690015  3.7217595672152242  6.0947257047567289
  1.4662206697989548 12.8750125859255427  6.1536910213787488
  5.0676654354979123 12.8750071830067192  6.1242076996809809
  8.6691102132958289 12.8750017872905538  6.0947243585787430
  0.1363537667547035  3.7217711885460067 13.1110048922320317
  3.7377985475714031  3.7217657976484664 13.0815215481328622
  7.3392433337192529  3.7217604106680362 13.0520381955556513
  0.1363400907557735 12.8750134011494222 13.1110035637031075
  3.7377848840029144 12.8750080219578251 13.0815202025175861
  7.3392296553983813 12.8750026210029596 13.0520368693685782
 -1.1935267304425503  3.7217720730693733 20.0683173177738468
  2.4079180617587150  3.7217666937000957 20.0388339580161876
  6.0093628423930241  3.7217613013390216 20.0093506134226296
 -1.1935403911238047 12.8750142993844392 20.0683159687482586
  2.4079043984456732 12.8750089167457649 20.0388326117651019
  6.0093491841427298 12.8750035304331440 20.0093492607286620
