 C  N  O  H 
        1.0000000000
  15.429893117648870   0.264360608574003  -0.243434857393136
   3.533812690019876  13.711292571457127  -0.070541036637813
  -4.129334106373205  -2.236271759764594  14.117516883021496
   72   24   48  168
 Direct
   0.280623778523523   0.404359393590550   0.186340123440141
   0.613957111856856   0.404359393590550   0.186340123440141
   0.947290445190189   0.404359393590550   0.186340123440141
   0.280623778523523   0.904359393590551   0.186340123440141
   0.613957111856856   0.904359393590551   0.186340123440141
   0.947290445190189   0.904359393590551   0.186340123440141
   0.280623778523523   0.404359393590550   0.686340123440141
   0.613957111856856   0.404359393590550   0.686340123440141
   0.947290445190189   0.404359393590550   0.686340123440141
   0.280623778523523   0.904359393590551   0.686340123440141
   0.613957111856856   0.904359393590551   0.686340123440141
   0.947290445190189   0.904359393590551   0.686340123440141
   0.052709554809809   0.095640606409450   0.313659876559857
   0.386042888143143   0.095640606409450   0.313659876559857
   0.719376221476476   0.095640606409450   0.313659876559857
   0.052709554809809   0.595640606409450   0.313659876559857
   0.386042888143143   0.595640606409450   0.313659876559857
   0.719376221476476   0.595640606409450   0.313659876559857
   0.052709554809809   0.095640606409450   0.813659876559857
   0.386042888143143   0.095640606409450   0.813659876559857
   0.719376221476476   0.095640606409450   0.813659876559857
   0.052709554809809   0.595640606409450   0.813659876559857
   0.386042888143143   0.595640606409450   0.813659876559857
   0.719376221476476   0.595640606409450   0.813659876559857
   0.255515810720908   0.304922883392389   0.141260030707617
   0.588849144054241   0.304922883392389   0.141260030707617
   0.922182477387574   0.304922883392389   0.141260030707617
   0.255515810720908   0.804922883392389   0.141260030707617
   0.588849144054241   0.804922883392389   0.141260030707617
   0.922182477387574   0.804922883392389   0.141260030707617
   0.255515810720908   0.304922883392389   0.641260030707617
   0.588849144054241   0.304922883392389   0.641260030707617
   0.922182477387574   0.304922883392389   0.641260030707617
   0.255515810720908   0.804922883392389   0.641260030707617
   0.588849144054241   0.804922883392389   0.641260030707617
   0.922182477387574   0.804922883392389   0.641260030707617
   0.077817522612424   0.195077116607610   0.358739969292382
   0.411150855945757   0.195077116607610   0.358739969292382
   0.744484189279090   0.195077116607610   0.358739969292382
   0.077817522612424   0.695077116607610   0.358739969292382
   0.411150855945757   0.695077116607610   0.358739969292382
   0.744484189279090   0.695077116607610   0.358739969292382
   0.077817522612424   0.195077116607610   0.858739969292382
   0.411150855945757   0.195077116607610   0.858739969292382
   0.744484189279090   0.195077116607610   0.858739969292382
   0.077817522612424   0.695077116607610   0.858739969292382
   0.411150855945757   0.695077116607610   0.858739969292382
   0.744484189279090   0.695077116607610   0.858739969292382
   0.001100528639367   0.143134544251773   0.077337560528045
   0.334433861972701   0.143134544251773   0.077337560528045
   0.667767195306034   0.143134544251773   0.077337560528045
   0.001100528639367   0.643134544251773   0.077337560528045
   0.334433861972701   0.643134544251773   0.077337560528045
   0.667767195306034   0.643134544251773   0.077337560528045
   0.001100528639367   0.143134544251773   0.577337560528045
   0.334433861972701   0.143134544251773   0.577337560528045
   0.667767195306034   0.143134544251773   0.577337560528045
   0.001100528639367   0.643134544251773   0.577337560528045
   0.334433861972701   0.643134544251773   0.577337560528045
   0.667767195306034   0.643134544251773   0.577337560528045
   0.332232804693965   0.356865455748227   0.422662439471954
   0.665566138027299   0.356865455748227   0.422662439471954
   0.998899471360632   0.356865455748227   0.422662439471954
   0.332232804693965   0.856865455748226   0.422662439471954
   0.665566138027299   0.856865455748226   0.422662439471954
   0.998899471360632   0.856865455748226   0.422662439471954
   0.332232804693965   0.356865455748227   0.922662439471954
   0.665566138027299   0.356865455748227   0.922662439471954
   0.998899471360632   0.356865455748227   0.922662439471954
   0.332232804693965   0.856865455748226   0.922662439471954
   0.665566138027299   0.856865455748226   0.922662439471954
   0.998899471360632   0.856865455748226   0.922662439471954
   0.083426422658857   0.085428182898837   0.066327231279314
   0.416759755992190   0.085428182898837   0.066327231279314
   0.750093089325523   0.085428182898837   0.066327231279314
   0.083426422658857   0.585428182898837   0.066327231279314
   0.416759755992190   0.585428182898837   0.066327231279314
   0.750093089325523   0.585428182898837   0.066327231279314
   0.083426422658857   0.085428182898837   0.566327231279314
   0.416759755992190   0.085428182898837   0.566327231279314
   0.750093089325523   0.085428182898837   0.566327231279314
   0.083426422658857   0.585428182898837   0.566327231279314
   0.416759755992190   0.585428182898837   0.566327231279314
   0.750093089325523   0.585428182898837   0.566327231279314
   0.249906910674477   0.414571817101162   0.433672768720686
   0.583240244007811   0.414571817101162   0.433672768720686
   0.916573577341144   0.414571817101162   0.433672768720686
   0.249906910674477   0.914571817101163   0.433672768720686
   0.583240244007811   0.914571817101163   0.433672768720686
   0.916573577341144   0.914571817101163   0.433672768720686
   0.249906910674477   0.414571817101162   0.933672768720686
   0.583240244007811   0.414571817101162   0.933672768720686
   0.916573577341144   0.414571817101162   0.933672768720686
   0.249906910674477   0.914571817101163   0.933672768720686
   0.583240244007811   0.914571817101163   0.933672768720686
   0.916573577341144   0.914571817101163   0.933672768720686
   0.008304217409677   0.237275279950272   0.120533469392770
   0.341637550743010   0.237275279950272   0.120533469392770
   0.674970884076343   0.237275279950272   0.120533469392770
   0.008304217409677   0.737275279950272   0.120533469392770
   0.341637550743010   0.737275279950272   0.120533469392770
   0.674970884076343   0.737275279950272   0.120533469392770
   0.008304217409677   0.237275279950272   0.620533469392770
   0.341637550743010   0.237275279950272   0.620533469392770
   0.674970884076343   0.237275279950272   0.620533469392770
   0.008304217409677   0.737275279950272   0.620533469392770
   0.341637550743010   0.737275279950272   0.620533469392770
   0.674970884076343   0.737275279950272   0.620533469392770
   0.325029115923656   0.262724720049727   0.379466530607230
   0.658362449256989   0.262724720049727   0.379466530607230
   0.991695782590323   0.262724720049727   0.379466530607230
   0.325029115923656   0.762724720049727   0.379466530607230
   0.658362449256989   0.762724720049727   0.379466530607230
   0.991695782590323   0.762724720049727   0.379466530607230
   0.325029115923656   0.262724720049727   0.879466530607230
   0.658362449256989   0.262724720049727   0.879466530607230
   0.991695782590323   0.262724720049727   0.879466530607230
   0.325029115923656   0.762724720049727   0.879466530607230
   0.658362449256989   0.762724720049727   0.879466530607230
   0.991695782590323   0.762724720049727   0.879466530607230
   0.260248999796481   0.114061048310712   0.053142391696347
   0.593582333129814   0.114061048310712   0.053142391696347
   0.926915666463148   0.114061048310712   0.053142391696347
   0.260248999796481   0.614061048310712   0.053142391696347
   0.593582333129814   0.614061048310712   0.053142391696347
   0.926915666463148   0.614061048310712   0.053142391696347
   0.260248999796481   0.114061048310712   0.553142391696347
   0.593582333129814   0.114061048310712   0.553142391696347
   0.926915666463148   0.114061048310712   0.553142391696347
   0.260248999796481   0.614061048310712   0.553142391696347
   0.593582333129814   0.614061048310712   0.553142391696347
   0.926915666463148   0.614061048310712   0.553142391696347
   0.073084333536850   0.385938951689286   0.446857608303651
   0.406417666870183   0.385938951689286   0.446857608303651
   0.739751000203517   0.385938951689286   0.446857608303651
   0.073084333536850   0.885938951689286   0.446857608303651
   0.406417666870183   0.885938951689286   0.446857608303651
   0.739751000203517   0.885938951689286   0.446857608303651
   0.073084333536850   0.385938951689286   0.946857608303651
   0.406417666870183   0.385938951689286   0.946857608303651
   0.739751000203517   0.385938951689286   0.946857608303651
   0.073084333536850   0.885938951689286   0.946857608303651
   0.406417666870183   0.885938951689286   0.946857608303651
   0.739751000203517   0.885938951689286   0.946857608303651
   0.219813455422722   0.456741713474974   0.204603894226674
   0.553146788756055   0.456741713474974   0.204603894226674
   0.886480122089389   0.456741713474974   0.204603894226674
   0.219813455422722   0.956741713474974   0.204603894226674
   0.553146788756055   0.956741713474974   0.204603894226674
   0.886480122089389   0.956741713474974   0.204603894226674
   0.219813455422722   0.456741713474974   0.704603894226674
   0.553146788756055   0.456741713474974   0.704603894226674
   0.886480122089389   0.456741713474974   0.704603894226674
   0.219813455422722   0.956741713474974   0.704603894226674
   0.553146788756055   0.956741713474974   0.704603894226674
   0.886480122089389   0.956741713474974   0.704603894226674
   0.113519877910610   0.043258286525024   0.295396105773324
   0.446853211243943   0.043258286525024   0.295396105773324
   0.780186544577276   0.043258286525024   0.295396105773324
   0.113519877910610   0.543258286525024   0.295396105773324
   0.446853211243943   0.543258286525024   0.295396105773324
   0.780186544577276   0.543258286525024   0.295396105773324
   0.113519877910610   0.043258286525024   0.795396105773324
   0.446853211243943   0.043258286525024   0.795396105773324
   0.780186544577276   0.043258286525024   0.795396105773324
   0.113519877910610   0.543258286525024   0.795396105773324
   0.446853211243943   0.543258286525024   0.795396105773324
   0.780186544577276   0.543258286525024   0.795396105773324
   0.003230947794605   0.397634554705591   0.251208356783819
   0.336564281127938   0.397634554705591   0.251208356783819
   0.669897614461271   0.397634554705591   0.251208356783819
   0.003230947794605   0.897634554705591   0.251208356783819
   0.336564281127938   0.897634554705591   0.251208356783819
   0.669897614461271   0.897634554705591   0.251208356783819
   0.003230947794605   0.397634554705591   0.751208356783819
   0.336564281127938   0.397634554705591   0.751208356783819
   0.669897614461271   0.397634554705591   0.751208356783819
   0.003230947794605   0.897634554705591   0.751208356783819
   0.336564281127938   0.897634554705591   0.751208356783819
   0.669897614461271   0.897634554705591   0.751208356783819
   0.330102385538726   0.102365445294407   0.248791643216179
   0.663435718872059   0.102365445294407   0.248791643216179
   0.996769052205393   0.102365445294407   0.248791643216179
   0.330102385538726   0.602365445294407   0.248791643216179
   0.663435718872059   0.602365445294407   0.248791643216179
   0.996769052205393   0.602365445294407   0.248791643216179
   0.330102385538726   0.102365445294407   0.748791643216179
   0.663435718872059   0.102365445294407   0.748791643216179
   0.996769052205393   0.102365445294407   0.748791643216179
   0.330102385538726   0.602365445294407   0.748791643216179
   0.663435718872059   0.602365445294407   0.748791643216179
   0.996769052205393   0.602365445294407   0.748791643216179
   0.302473916174901   0.434680973880744   0.137222536738779
   0.635807249508235   0.434680973880744   0.137222536738779
   0.969140582841568   0.434680973880744   0.137222536738779
   0.302473916174901   0.934680973880744   0.137222536738779
   0.635807249508235   0.934680973880744   0.137222536738779
   0.969140582841568   0.934680973880744   0.137222536738779
   0.302473916174901   0.434680973880744   0.637222536738779
   0.635807249508235   0.434680973880744   0.637222536738779
   0.969140582841568   0.434680973880744   0.637222536738779
   0.302473916174901   0.934680973880744   0.637222536738779
   0.635807249508235   0.934680973880744   0.637222536738779
   0.969140582841568   0.934680973880744   0.637222536738779
   0.030859417158431   0.065319026119256   0.362777463261219
   0.364192750491764   0.065319026119256   0.362777463261219
   0.697526083825097   0.065319026119256   0.362777463261219
   0.030859417158431   0.565319026119256   0.362777463261219
   0.364192750491764   0.565319026119256   0.362777463261219
   0.697526083825097   0.565319026119256   0.362777463261219
   0.030859417158431   0.065319026119256   0.862777463261219
   0.364192750491764   0.065319026119256   0.862777463261219
   0.697526083825097   0.065319026119256   0.862777463261219
   0.030859417158431   0.565319026119256   0.862777463261219
   0.364192750491764   0.565319026119256   0.862777463261219
   0.697526083825097   0.565319026119256   0.862777463261219
   0.233628030688802   0.273331464791321   0.189456759464456
   0.566961364022136   0.273331464791321   0.189456759464456
   0.900294697355469   0.273331464791321   0.189456759464456
   0.233628030688802   0.773331464791321   0.189456759464456
   0.566961364022136   0.773331464791321   0.189456759464456
   0.900294697355469   0.773331464791321   0.189456759464456
   0.233628030688802   0.273331464791321   0.689456759464456
   0.566961364022136   0.273331464791321   0.689456759464456
   0.900294697355469   0.273331464791321   0.689456759464456
   0.233628030688802   0.773331464791321   0.689456759464456
   0.566961364022136   0.773331464791321   0.689456759464456
   0.900294697355469   0.773331464791321   0.689456759464456
   0.099705302644531   0.226668535208678   0.310543240535542
   0.433038635977865   0.226668535208678   0.310543240535542
   0.766371969311198   0.226668535208678   0.310543240535542
   0.099705302644531   0.726668535208678   0.310543240535542
   0.433038635977865   0.726668535208678   0.310543240535542
   0.766371969311198   0.726668535208678   0.310543240535542
   0.099705302644531   0.226668535208678   0.810543240535542
   0.433038635977865   0.226668535208678   0.810543240535542
   0.766371969311198   0.226668535208678   0.810543240535542
   0.099705302644531   0.726668535208678   0.810543240535542
   0.433038635977865   0.726668535208678   0.810543240535542
   0.766371969311198   0.726668535208678   0.810543240535542
   0.201657423171443   0.309289623577513   0.074813492336400
   0.534990756504776   0.309289623577513   0.074813492336400
   0.868324089838110   0.309289623577513   0.074813492336400
   0.201657423171443   0.809289623577513   0.074813492336400
   0.534990756504776   0.809289623577513   0.074813492336400
   0.868324089838110   0.809289623577513   0.074813492336400
   0.201657423171443   0.309289623577513   0.574813492336400
   0.534990756504776   0.309289623577513   0.574813492336400
   0.868324089838110   0.309289623577513   0.574813492336400
   0.201657423171443   0.809289623577513   0.574813492336400
   0.534990756504776   0.809289623577513   0.574813492336400
   0.868324089838110   0.809289623577513   0.574813492336400
   0.131675910161892   0.190710376422487   0.425186507663599
   0.465009243495225   0.190710376422487   0.425186507663599
   0.798342576828558   0.190710376422487   0.425186507663599
   0.131675910161892   0.690710376422487   0.425186507663599
   0.465009243495225   0.690710376422487   0.425186507663599
   0.798342576828558   0.690710376422487   0.425186507663599
   0.131675910161892   0.190710376422487   0.925186507663599
   0.465009243495225   0.190710376422487   0.925186507663599
   0.798342576828558   0.190710376422487   0.925186507663599
   0.131675910161892   0.690710376422487   0.925186507663599
   0.465009243495225   0.690710376422487   0.925186507663599
   0.798342576828558   0.690710376422487   0.925186507663599
   0.139856372695030   0.114727692244755   0.078332574927250
   0.473189706028363   0.114727692244755   0.078332574927250
   0.806523039361696   0.114727692244755   0.078332574927250
   0.139856372695030   0.614727692244756   0.078332574927250
   0.473189706028363   0.614727692244756   0.078332574927250
   0.806523039361696   0.614727692244756   0.078332574927250
   0.139856372695030   0.114727692244755   0.578332574927250
   0.473189706028363   0.114727692244755   0.578332574927250
   0.806523039361696   0.114727692244755   0.578332574927250
   0.139856372695030   0.614727692244756   0.578332574927250
   0.473189706028363   0.614727692244756   0.578332574927250
   0.806523039361696   0.614727692244756   0.578332574927250
   0.193476960638303   0.385272307755244   0.421667425072749
   0.526810293971637   0.385272307755244   0.421667425072749
   0.860143627304970   0.385272307755244   0.421667425072749
   0.193476960638303   0.885272307755244   0.421667425072749
   0.526810293971637   0.885272307755244   0.421667425072749
   0.860143627304970   0.885272307755244   0.421667425072749
   0.193476960638303   0.385272307755244   0.921667425072749
   0.526810293971637   0.385272307755244   0.921667425072749
   0.860143627304970   0.385272307755244   0.921667425072749
   0.193476960638303   0.885272307755244   0.921667425072749
   0.526810293971637   0.885272307755244   0.921667425072749
   0.860143627304970   0.885272307755244   0.921667425072749
   0.083446010920914   0.016226847393943   0.028209360978340
   0.416779344254247   0.016226847393943   0.028209360978340
   0.750112677587580   0.016226847393943   0.028209360978340
   0.083446010920914   0.516226847393943   0.028209360978340
   0.416779344254247   0.516226847393943   0.028209360978340
   0.750112677587580   0.516226847393943   0.028209360978340
   0.083446010920914   0.016226847393943   0.528209360978340
   0.416779344254247   0.016226847393943   0.528209360978340
   0.750112677587580   0.016226847393943   0.528209360978340
   0.083446010920914   0.516226847393943   0.528209360978340
   0.416779344254247   0.516226847393943   0.528209360978340
   0.750112677587580   0.516226847393943   0.528209360978340
   0.249887322412420   0.483773152606056   0.471790639021657
   0.583220655745753   0.483773152606056   0.471790639021657
   0.916553989079086   0.483773152606056   0.471790639021657
   0.249887322412420   0.983773152606056   0.471790639021657
   0.583220655745753   0.983773152606056   0.471790639021657
   0.916553989079086   0.983773152606056   0.471790639021657
   0.249887322412420   0.483773152606056   0.971790639021657
   0.583220655745753   0.483773152606056   0.971790639021657
   0.916553989079086   0.483773152606056   0.971790639021657
   0.249887322412420   0.983773152606056   0.971790639021657
   0.583220655745753   0.983773152606056   0.971790639021657
   0.916553989079086   0.983773152606056   0.971790639021657
