 C  H  N                                
   1.0000000000000000     
    22.0000000000000000    0.0000000000000000    0.0000000000000000
     0.0000000000000000   22.0000000000000000    0.0000000000000000
     0.0000000000000000    0.0000000000000000   22.0000000000000000
   C    H    N 
     3     3     3
Direct
  0.2236164342222295  0.2309075652761337  0.2272699265758007
  0.3092152193030770  0.2874133380390731  0.2272738142654092
  0.2174804110653525  0.3332912475413963  0.2272734867498087
  0.3584104441909588  0.2903615496370122  0.2272750011138598
  0.2015720756546457  0.1868290526339038  0.2272678771530749
  0.1903291835365479  0.3744214287250500  0.2272744138116423
  0.2846558698103507  0.2315288433191824  0.2272713511192066
  0.1874986774721421  0.2801186837383156  0.2272706770469668
  0.2781571392901583  0.3399646547263089  0.2272752703460270

  0.00000000E+00  0.00000000E+00  0.00000000E+00
  0.00000000E+00  0.00000000E+00  0.00000000E+00
  0.00000000E+00  0.00000000E+00  0.00000000E+00
  0.00000000E+00  0.00000000E+00  0.00000000E+00
  0.00000000E+00  0.00000000E+00  0.00000000E+00
  0.00000000E+00  0.00000000E+00  0.00000000E+00
  0.00000000E+00  0.00000000E+00  0.00000000E+00
  0.00000000E+00  0.00000000E+00  0.00000000E+00
  0.00000000E+00  0.00000000E+00  0.00000000E+00
