 C  H 
 1.0000000000000000
     8.0631776533203592    0.0000000000000000    0.3196927795764394
     0.0000000000000000    6.0433051893995966    0.0000000000000000
    -4.6157493760141906    0.0000000000000000    7.2004043725131250
 C   H  
  20  16
Selective dynamics
Cartesian
 -0.7845440477396695  0.0594425984141732  2.4152072179462616   T   T   T
  4.2319722456265181  5.9838625909853977  5.1048913532534250   T   T   T
  0.2003834189663342  3.0810951931139638  4.9450449634652012   T   T   T
  3.2470447789205101  2.9622099962856194  2.5750536077344841   T   T   T
 -0.0760926312410038  0.9435121672181074  1.6248179407956311   T   T   T
  3.5235208291278530  5.0997930221814620  5.8952806304040655   T   T   T
 -0.5080679975323308  3.9651647619178996  5.7354342406158487   T   T   T
  3.9554961954191681  2.0781404274816775  1.7846643305838505   T   T   T
  0.2217767949296964  0.6306651507215594  0.2676656501694495   T   T   T
  3.2256514029571428  5.4126400386780107  7.2524329210302572   T   T   T
 -0.8059374237030338  3.6523177454213509  7.0925865312420315   T   T   T
  4.2533656215898681  2.3909874439782262  0.4275120399576687   T   T   T
 -3.6707540652134356  1.5202053895800505  6.6244496188927720   T   T   T
  7.1181822631002749  4.5230997998195184  0.8956489523069434   T   T   T
  3.0865934364400993  4.5418579842798383  0.7358025625187227   T   T   T
  0.3608347614467404  1.5014472051197381  6.7842960086809825   T   T   T
 -3.3902416716130528  1.1827198420948002  5.3146785974398334   T   T   T
  6.8376698694998872  4.8605853473047773  2.2054199737598608   T   T   T
  2.8060810428397120  4.2043724367945758  2.0455735839716445   T   T   T
  0.6413471550471282  1.8389327526049892  5.4745249872280484   T   T   T
 -1.0059477295829944  0.3156213103731633  3.4452088192913215   T   T   T
  4.4533759274698497  5.7276838790264124  4.0748897519083771   T   T   T
  0.4217871008096589  3.3372739050729505  3.9150433621201572   T   T   T
  3.0256410970771768  2.7060312843266274  3.6050552090795454   T   T   T
  0.2614934218326317  1.8934585997204587  2.0251665028672940   T   T   T
  3.1859347760542081  4.1498465896791137  5.4949320683324050   T   T   T
 -0.8456540506059670  4.9151111944202439  5.3350856785441909   T   T   T
  4.2930822484928006  1.1281939949793307  2.1850128926555121   T   T   T
 -3.3403189466968009  2.4695482872652321  7.0286085271935255   T   T   T
  6.7877471445836459  3.5737569021343480  0.4914900440061842   T   T   T
  2.7561583179234668  5.4912008819650167  0.3316436542179645   T   T   T
  0.6912698799633737  0.5521043074345560  7.1884549169817298   T   T   T
 -2.8277378005721832  1.8674238821257538  4.6884136657945348   T   T   T
  6.2751659984590225  4.1758813072738166  2.8316849054051669   T   T   T
  2.2435771717988433  4.8890764768255410  2.6718385156169457   T   T   T
  1.2038510260880029  1.1542287125740349  4.8482600555827595   T   T   T
