 C  O  N  H 
 1.0000000000000000
    10.4574076635305353   -0.0000155612046530    0.3000529556110617
     0.0000276833338732   18.5423623795400587   -0.0000031808120608
    -3.1340891053441187    0.0000083339380899   21.3055231573030142
 C   O   N   H  
  72  72  72 216
Selective dynamics
Cartesian
  0.8943652434939993  0.5403407981303076  1.8941340919358847   T   T   T
  4.3801677980041678  0.5403356110620899  1.9941517438062386   T   T   T
  7.8659703525143350  0.5403304239938723  2.0941693956765932   T   T   T
  0.8943790851609357  9.8115219879003686  1.8941325015298551   T   T   T
  4.3801816396710818  9.8115168008321643  1.9941501534002093   T   T   T
  7.8659841941812676  9.8115116137639315  2.0941678052705637   T   T   T
 -0.1503311249540388  0.5403435761096729  8.9959751443701599   T   T   T
  3.3354714295561418  0.5403383890414533  9.0959927962405693   T   T   T
  6.8212739840662895  0.5403332019732355  9.1960104481109166   T   T   T
 -0.1503172832871028  9.8115247658797333  8.9959735539641272   T   T   T
  3.3354852712230687  9.8115195788115201  9.0959912058345420   T   T   T
  6.8212878257332346  9.8115143917433034  9.1960088577048964   T   T   T
 -1.1950274934020817  0.5403463540890342 16.0978161968045619   T   T   T
  2.2907750611080826  0.5403411670208160 16.1978338486748505   T   T   T
  5.7765776156182671  0.5403359799525999 16.2978515005452813   T   T   T
 -1.1950136517351420  9.8115275438590981 16.0978146063985044   T   T   T
  2.2907889027750183  9.8115223567908902 16.1978322582688286   T   T   T
  5.7765914572852042  9.8115171697226593 16.2978499101392238   T   T   T
  1.5467716390175696  8.7308379825350713  5.3077773833812527   T   T   T
  5.0325741935277408  8.7308327954668350  5.4077950352515884   T   T   T
  8.5183767480378680  8.7308276083986129  5.5078126871219544   T   T   T
  1.5467854806845038 18.0020191723050615  5.3077757929752192   T   T   T
  5.0325880351946664 18.0020139852368501  5.4077934448455576   T   T   T
  8.5183905897047918 18.0020087981686281  5.5078110967159200   T   T   T
  0.5020752705695288  8.7308407605144254 12.4096184358156094   T   T   T
  3.9878778250796989  8.7308355734461927 12.5096360876859549   T   T   T
  7.4736803795898687  8.7308303863779688 12.6096537395563004   T   T   T
  0.5020891122364647 18.0020219502844405 12.4096168454095697   T   T   T
  3.9878916667466360 18.0020167632162007 12.5096344972799169   T   T   T
  7.4736942212568120 18.0020115761479822 12.6096521491502589   T   T   T
 -0.5426210978785047  8.7308435384937795 19.5114594882498551   T   T   T
  2.9431814566316623  8.7308383514255770 19.6114771401202610   T   T   T
  6.4289840111418464  8.7308331643573638 19.7114947919906243   T   T   T
 -0.5426072562115702 18.0020247282638195 19.5114578978438189   T   T   T
  2.9431952982985972 18.0020195411955903 19.6114755497142141   T   T   T
  6.4289978528087897 18.0020143541273079 19.7114932015846094   T   T   T
  0.3262132385895903  5.1759322091366258  1.7068486410482200   T   T   T
  3.8120157930997696  5.1759270220684108  1.8068662929185753   T   T   T
  7.2978183476099305  5.1759218350001843  1.9068839447889283   T   T   T
  0.3262270802565272 14.4471133989067244  1.7068470506421904   T   T   T
  3.8120296347667044 14.4471082118385006  1.8068647025125451   T   T   T
  7.2978321892768676 14.4471030247702767  1.9068823543828985   T   T   T
 -0.7184831298584435  5.1759349871159852  8.8086896934825312   T   T   T
  2.7673194246517303  5.1759298000477685  8.9087073453529246   T   T   T
  6.2531219791619179  5.1759246129795429  9.0087249972232559   T   T   T
 -0.7184692881915078 14.4471161768860945  8.8086881030765092   T   T   T
  2.7673332663186705 14.4471109898178565  8.9087057549468920   T   T   T
  6.2531358208288523 14.4471058027496255  9.0087234068172464   T   T   T
 -1.7631794983064699  5.1759377650953589 15.9105307459168923   T   T   T
  1.7226230562036906  5.1759325780271270 16.0105483977872503   T   T   T
  5.2084256107138538  5.1759273909589094 16.1105660496576277   T   T   T
 -1.7631656566395366 14.4471189548654273 15.9105291555108597   T   T   T
  1.7226368978706252 14.4471137677972372 16.0105468073812105   T   T   T
  5.2084394523807953 14.4471085807290098 16.1105644592515986   T   T   T
  2.1149236439219541  4.0952465715287678  5.4950628342689019   T   T   T
  5.6007261984321381  4.0952413844605484  5.5950804861392420   T   T   T
  9.0865287529422751  4.0952361973923361  5.6950981380096124   T   T   T
  2.1149374855888881 13.3664277612988940  5.4950612438628630   T   T   T
  5.6007400400990761 13.3664225742306808  5.5950788957332112   T   T   T
  9.0865425946092131 13.3664173871625067  5.6950965476035833   T   T   T
  1.0702272754739337  4.0952493495081264 12.5969038867032346   T   T   T
  4.5560298299840678  4.0952441624399079 12.6969215385736032   T   T   T
  8.0418323844942794  4.0952389753716902 12.7969391904439380   T   T   T
  1.0702411171408730 13.3664305392782747 12.5969022962972019   T   T   T
  4.5560436716510093 13.3664253522100687 12.6969199481675723   T   T   T
  8.0418462261611960 13.3664201651418466 12.7969376000379143   T   T   T
  0.0255309070258961  4.0952521274874858 19.6987449391374554   T   T   T
  3.5113334615360654  4.0952469404192735 19.7987625910079323   T   T   T
  6.9971360160462446  4.0952417533510594 19.8987802428782992   T   T   T
  0.0255447486928338 13.3664333172576306 19.6987433487314370   T   T   T
  3.5113473032030025 13.3664281301894228 19.7987610006019246   T   T   T
  6.9971498577131852 13.3664229431211989 19.8987786524722559   T   T   T
  1.4179848755760096  8.6732373778283893  1.8225426180264672   T   T   T
  4.9037874300861768  8.6732321907601833  1.9225602698968229   T   T   T
  8.3895899845962596  8.6732270036919825  2.0225779217671698   T   T   T
  1.4179987172429456 17.9444185675984471  1.8225410276204370   T   T   T
  4.9038012717531210 17.9444133805302108  1.9225586794907910   T   T   T
  8.3896038262632207 17.9444081934620066  2.0225763313611416   T   T   T
  0.3732885071279750  8.6732401558077630  8.9243836704607471   T   T   T
  3.8590910616381455  8.6732349687395782  9.0244013223311725   T   T   T
  7.3448936161483100  8.6732297816713242  9.1244189742015056   T   T   T
  0.3733023487949110 17.9444213455778119  8.9243820800547056   T   T   T
  3.8591049033050839 17.9444161585095614  9.0243997319251292   T   T   T
  7.3449074578152551 17.9444109714413749  9.1244173837954659   T   T   T
 -0.6714078613200589  8.6732429337871260 16.0262247228951580   T   T   T
  2.8143946931901036  8.6732377467189270 16.1262423747654609   T   T   T
  6.3001972477002752  8.6732325596507103 16.2262600266358774   T   T   T
 -0.6713940196531196 17.9444241235571802 16.0262231324891218   T   T   T
  2.8144085348570367 17.9444189364889652 16.1262407843594353   T   T   T
  6.3002110893672176 17.9444137494207112 16.2262584362298270   T   T   T
  1.0231520069355498  0.5979414028369529  5.3793688572906539   T   T   T
  4.5089545614456989  0.5979362157687346  5.4793865091610003   T   T   T
  7.9947571159558812  0.5979310287005172  5.5794041610313592   T   T   T
  1.0231658486024857  9.8691225926070150  5.3793672668846204   T   T   T
  4.5089684031126378  9.8691174055387982  5.4793849187549633   T   T   T
  7.9947709576228130  9.8691122184705709  5.5794025706253256   T   T   T
 -0.0215443615124848  0.5979441808163167 12.4812099097250009   T   T   T
  3.4642581929976890  0.5979389937480980 12.5812275615953748   T   T   T
  6.9500607475078349  0.5979338066798799 12.6812452134657292   T   T   T
 -0.0215305198455493  9.8691253705863904 12.4812083193189753   T   T   T
  3.4642720346646203  9.8691201835181577 12.5812259711893457   T   T   T
  6.9500745891747941  9.8691149964499658 12.6812436230596912   T   T   T
 -1.0662407299605234  0.5979469587956781 19.5830509621592768   T   T   T
  2.4195618245496426  0.5979417717274613 19.6830686140296187   T   T   T
  5.9053643790598302  0.5979365846592443 19.7830862659000140   T   T   T
 -1.0662268882935899  9.8691281485657640 19.5830493717532370   T   T   T
  2.4195756662165797  9.8691229614975207 19.6830670236236038   T   T   T
  5.9053782207267602  9.8691177744292862 19.7830846754939991   T   T   T
 -0.1973959506902333  4.0376491870948179  1.7784389150808027   T   T   T
  3.2884066038199395  4.0376440000266065  1.8784565669511573   T   T   T
  6.7742091583301134  4.0376388129583836  1.9784742188215081   T   T   T
 -0.1973821090232973 13.3088303768649681  1.7784373246747729   T   T   T
  3.2884204454868748 13.3088251897967336  1.8784549765451259   T   T   T
  6.7742229999970469 13.3088200027285293  1.9784726284154790   T   T   T
 -1.2420923191382747  4.0376519650741871  8.8802799675151061   T   T   T
  2.2437102353718847  4.0376467780059748  8.9802976193854676   T   T   T
  5.7295127898820795  4.0376415909377519  9.0803152712558362   T   T   T
 -1.2420784774713383 13.3088331548443204  8.8802783771090805   T   T   T
  2.2437240770388205 13.3088279677761143  8.9802960289794385   T   T   T
  5.7295266315490130 13.3088227807078798  9.0803136808498088   T   T   T
 -2.2867886875863075  4.0376547430535448 15.9821210199494992   T   T   T
  1.1990138669238586  4.0376495559853378 16.0821386718198056   T   T   T
  4.6848164214340162  4.0376443689171158 16.1821563236901866   T   T   T
 -2.2867748459193642 13.3088359328236887 15.9821194295434772   T   T   T
  1.1990277085907937 13.3088307457554542 16.0821370814137694   T   T   T
  4.6848302631009400 13.3088255586872375 16.1821547332841540   T   T   T
  2.6385328332017979  5.2335295935705801  5.4234725602363385   T   T   T
  6.1243353877119766  5.2335244065023581  5.5234902121066787   T   T   T
  9.6101379422220923  5.2335192194341298  5.6235078639770428   T   T   T
  2.6385466748687367 14.5047107833406770  5.4234709698303041   T   T   T
  6.1243492293789110 14.5047055962724674  5.5234886217006540   T   T   T
  9.6101517838890356 14.5047004092042418  5.6235062735710120   T   T   T
  1.5938364647537608  5.2335323715499502 12.5253136126706845   T   T   T
  5.0796390192639223  5.2335271844817317 12.6253312645410354   T   T   T
  8.5654415737740361  5.2335219974135123 12.7253489164113951   T   T   T
  1.5938503064206990 14.5047135613200329 12.5253120222646555   T   T   T
  5.0796528609308567 14.5047083742518144 12.6253296741350010   T   T   T
  8.5654554154409599 14.5047031871836012 12.7253473260053500   T   T   T
  0.5491400963057221  5.2335351495293088 19.6271546651048716   T   T   T
  4.0349426508158999  5.2335299624610885 19.7271723169753415   T   T   T
  7.5207452053260644  5.2335247753928744 19.8271899688456941   T   T   T
  0.5491539379726583 14.5047163392993994 19.6271530746988354   T   T   T
  4.0349564924828343 14.5047111522311791 19.7271707265693195   T   T   T
  7.5207590469930166 14.5047059651629677 19.8271883784396508   T   T   T
  0.8601481147695604  1.4317187557465674  0.8991097330496750   T   T   T
  4.3459506692796941  1.4317135686783480  0.9991273849200281   T   T   T
  7.8317532237898595  1.4317083816101315  1.0991450367903834   T   T   T
  0.8601619564364976 10.7028999455167106  0.8991081426436448   T   T   T
  4.3459645109466356 10.7028947584484833  0.9991257945139994   T   T   T
  7.8317670654568055 10.7028895713802754  1.0991434463843546   T   T   T
 -0.1845482536784780  1.4317215337259321  8.0009507854840276   T   T   T
  3.3012543008316997  1.4317163466577134  8.1009684373543820   T   T   T
  6.7870568553418655  1.4317111595894945  8.2009860892247168   T   T   T
 -0.1845344120115408 10.7029027234960701  8.0009491950780038   T   T   T
  3.3012681424986341 10.7028975364278534  8.1009668469483511   T   T   T
  6.7870706970087973 10.7028923493596402  8.2009844988186931   T   T   T
 -1.2292446221265125  1.4317243117052953 15.1027918379183390   T   T   T
  2.2565579323836524  1.4317191246370795 15.2028094897887005   T   T   T
  5.7423604868938201  1.4317139375688597 15.3028271416590531   T   T   T
 -1.2292307804595761 10.7029055014754331 15.1027902475122886   T   T   T
  2.2565717740505877 10.7029003144072057 15.2028078993826732   T   T   T
  5.7423743285607554 10.7028951273390209 15.3028255512530293   T   T   T
  1.5809887677420003  7.8394600249188464  6.3028017422674498   T   T   T
  5.0667913222521781  7.8394548378506270  6.4028193941377820   T   T   T
  8.5525938767623124  7.8394496507824094  6.5028370460081533   T   T   T
  1.5810026094089369 17.1106412146888083  6.3028001518614207   T   T   T
  5.0668051639191267 17.1106360276206075  6.4028178037317618   T   T   T
  8.5526077184292415 17.1106308405524210  6.5028354556021162   T   T   T
  0.5362923992939688  7.8394628028982041 13.4046427947017897   T   T   T
  4.0220949538041300  7.8394576158299829 13.5046604465721565   T   T   T
  7.5078975083143007  7.8394524287617724 13.6046780984425286   T   T   T
  0.5363062409609044 17.1106439926682121 13.4046412042957623   T   T   T
  4.0221087954710733 17.1106388055999687 13.5046588561661203   T   T   T
  7.5079113499812431 17.1106336185317716 13.6046765080365013   T   T   T
 -0.5084039691540714  7.8394655808775742 20.5064838471361099   T   T   T
  2.9773985853560947  7.8394603938093530 20.6065014990065087   T   T   T
  6.4632011398662748  7.8394552067411416 20.7065191508768649   T   T   T
 -0.5083901274871349 17.1106467706475591 20.5064822567300986   T   T   T
  2.9774124270230251 17.1106415835794046 20.6064999086004619   T   T   T
  6.4632149815332216 17.1106363965111221 20.7065175604708216   T   T   T
  0.3604330289292453  6.0673104059569276  2.7018726941151328   T   T   T
  3.8462355834394204  6.0673052188887038  2.8018903459854858   T   T   T
  7.3320381379495991  6.0673000318204844  2.9019079978558344   T   T   T
  0.3604468705961821 15.3384915957270458  2.7018711037091032   T   T   T
  3.8462494251063553 15.3384864086588344  2.8018887555794576   T   T   T
  7.3320519796165255 15.3384812215906035  2.9019064074498031   T   T   T
 -0.6842633395187909  6.0673131839362862  9.8037137465494659   T   T   T
  2.8015392149913776  6.0673079968680730  9.9037313984198434   T   T   T
  6.2873417695015643  6.0673028097998474 10.0037490502901960   T   T   T
 -0.6842494978518533 15.3384943737064123  9.8037121561434244   T   T   T
  2.8015530566583178 15.3384891866381938  9.9037298080138161   T   T   T
  6.2873556111684987 15.3384839995699682 10.0037474598841740   T   T   T
 -1.7289597079668253  6.0673159619156483 16.9055547989837613   T   T   T
  1.7568428465433348  6.0673107748474280 17.0055724508540536   T   T   T
  5.2426454010535197  6.0673055877792157 17.1055901027245163   T   T   T
 -1.7289458662998956 15.3384971516857629 16.9055532085777180   T   T   T
  1.7568566882102696 15.3384919646175426 17.0055708604480103   T   T   T
  5.2426592427204541 15.3384867775493099 17.1055885123184943   T   T   T
  2.0807038535823041  3.2038683747085002  4.5000387812020008   T   T   T
  5.5665064080924784  3.2038631876402861  4.6000564330723401   T   T   T
  9.0523089626026163  3.2038580005720672  4.7000740849426998   T   T   T
  2.0807176952492394 12.4750495644786152  4.5000371907959638   T   T   T
  5.5665202497594128 12.4750443774104074  4.6000548426663128   T   T   T
  9.0523228042695738 12.4750391903421995  4.7000724945366699   T   T   T
  1.0360074851342795  3.2038711526878663 11.6018798336363105   T   T   T
  4.5218100396444241  3.2038659656196495 11.7018974855066542   T   T   T
  8.0076125941546046  3.2038607785514324 11.8019151373770121   T   T   T
  1.0360213268012164 12.4750523424579605 11.6018782432302690   T   T   T
  4.5218238813113514 12.4750471553897491 11.7018958951006251   T   T   T
  8.0076264358215550 12.4750419683215465 11.8019135469709848   T   T   T
 -0.0086888833137585  3.2038739306672301 18.7037208860705846   T   T   T
  3.4771136711964115  3.2038687435990121 18.8037385379410260   T   T   T
  6.9629162257065982  3.2038635565307914 18.9037561898114070   T   T   T
 -0.0086750416468211 12.4750551204373288 18.7037192956645484   T   T   T
  3.4771275128633450 12.4750499333691192 18.8037369475349898   T   T   T
  6.9629300673735237 12.4750447463009166 18.9037545994053815   T   T   T
  0.4657899654980314  2.3586340566091475  1.0658996437757160   T   T   T
  3.9515925200081887  2.3586288695409348  1.1659172956460704   T   T   T
  7.4373950745183794  2.3586236824727180  1.2659349475164259   T   T   T
  0.4658038071649678 11.6298152463792324  1.0658980533696858   T   T   T
  3.9516063616751316 11.6298100593110210  1.1659157052400395   T   T   T
  7.4374089161853050 11.6298048722428060  1.2659333571103946   T   T   T
 -0.5789064029500071  2.3586368345885140  8.1677406962100250   T   T   T
  2.9068961515601663  2.3586316475202973  8.2677583480803936   T   T   T
  6.3926987060703562  2.3586264604520797  8.3677759999507284   T   T   T
 -0.5788925612830702 11.6298180243586149  8.1677391058040012   T   T   T
  2.9069099932270968 11.6298128372903662  8.2677567576743591   T   T   T
  6.3927125477372959 11.6298076502221530  8.3677744095446975   T   T   T
 -1.6236027713980365  2.3586396125678766 15.2695817486443612   T   T   T
  1.8621997831121366  2.3586344254996630 15.3695994005147334   T   T   T
  5.3480023376222778  2.3586292384314467 15.4696170523850967   T   T   T
 -1.6235889297310999 11.6298208023379619 15.2695801582383393   T   T   T
  1.8622136247790686 11.6298156152697292 15.3695978101086954   T   T   T
  5.3480161792892398 11.6298104282015267 15.4696154619790640   T   T   T
  1.9753469170135272  6.9125447240562501  6.1360118315414072   T   T   T
  5.4611494715237106  6.9125395369880289  6.2360294834117544   T   T   T
  8.9469520260338165  6.9125343499198149  6.3360471352821115   T   T   T
  1.9753607586804622 16.1837259138262830  6.1360102411353878   T   T   T
  5.4611633131906450 16.1837207267580965  6.2360278930057307   T   T   T
  8.9469658677007740 16.1837155396898495  6.3360455448760788   T   T   T
  0.9306505485654971  6.9125475020356184 13.2378528839757621   T   T   T
  4.4164531030756180  6.9125423149673946 13.3378705358461254   T   T   T
  7.9022556575858394  6.9125371278991761 13.4378881877164762   T   T   T
  0.9306643902324325 16.1837286918056655 13.2378512935697259   T   T   T
  4.4164669447425871 16.1837235047374506 13.3378689454400821   T   T   T
  7.9022694992527702 16.1837183176692214 13.4378865973104578   T   T   T
 -0.1140458198825417  6.9125502800149876 20.3396939364100930   T   T   T
  3.3717567346276205  6.9125450929467593 20.4397115882804989   T   T   T
  6.8575592891378241  6.9125399058785479 20.5397292401508338   T   T   T
 -0.1140319782156056 16.1837314697850481 20.3396923460040853   T   T   T
  3.3717705762945531 16.1837262827167834 20.4397099978744841   T   T   T
  6.8575731308047461 16.1837210956486075 20.5397276497448047   T   T   T
  0.7547939459267144  6.9942244720561728  2.5350824653776871   T   T   T
  4.2405965004368591  6.9942192849879499  2.6351001172480362   T   T   T
  7.7263990549470609  6.9942140979197278  2.7351177691183879   T   T   T
  0.7548077875936501 16.2654056618261720  2.5350808749716540   T   T   T
  4.2406103421037855 16.2654004747579570  2.6350985268420035   T   T   T
  7.7264128966139953 16.2653952876897208  2.7351161787123579   T   T   T
 -0.2899024225213253  6.9942272500355331  9.6369235178119794   T   T   T
  3.1959001319888434  6.9942220629673129  9.7369411696823889   T   T   T
  6.6817026864990279  6.9942168758990988  9.8369588215527539   T   T   T
 -0.2898885808543894 16.2654084398055225  9.6369219274059503   T   T   T
  3.1959139736557822 16.2654032527373076  9.7369395792763580   T   T   T
  6.6817165281659650 16.2653980656690855  9.8369572311467124   T   T   T
 -1.3345987909693688  6.9942300280148935 16.7387645702463743   T   T   T
  2.1512037635407997  6.9942248409466812 16.8387822221166417   T   T   T
  5.6370063180509788  6.9942196538784582 16.9387998739871222   T   T   T
 -1.3345849493024353 16.2654112177848660 16.7387629798402919   T   T   T
  2.1512176052077367 16.2654060307166901 16.8387806317106197   T   T   T
  5.6370201597179133 16.2654008436484716 16.9387982835810611   T   T   T
  1.6863429365848612  2.2769543086092310  4.6668290099394438   T   T   T
  5.1721454910950291  2.2769491215410125  4.7668466618097964   T   T   T
  8.6579480456051492  2.2769439344727909  4.8668643136801562   T   T   T
  1.6863567782517987 11.5481354983793398  4.6668274195334138   T   T   T
  5.1721593327619626 11.5481303113111284  4.7668450714037638   T   T   T
  8.6579618872720836 11.5481251242428904  4.8668627232741182   T   T   T
  0.6416465681368138  2.2769570865885935 11.7686700623737615   T   T   T
  4.1274491226469818  2.2769518995203706 11.8686877142441105   T   T   T
  7.6132516771571561  2.2769467124521605 11.9687053661144631   T   T   T
  0.6416604098037511 11.5481382763587117 11.7686684719677306   T   T   T
  4.1274629643139233 11.5481330892904719 11.8686861238380743   T   T   T
  7.6132655188240994 11.5481279022222747 11.9687037757084465   T   T   T
 -0.4030498003112212  2.2769598645679556 18.8705111148080178   T   T   T
  3.0827527541989497  2.2769546774997371 18.9705287666784379   T   T   T
  6.5685553087091453  2.2769494904315160 19.0705464185488154   T   T   T
 -0.4030359586442857 11.5481410543380640 18.8705095244019709   T   T   T
  3.0827665958658907 11.5481358672698562 18.9705271762723733   T   T   T
  6.5685691503760832 11.5481306802016235 19.0705448281427579   T   T   T
  0.2165048383785991  1.1979329916401915  7.0884954341413087   T   T   T
  3.7023073928887671  1.1979278045719743  7.1885130860116684   T   T   T
  7.1881099473989547  1.1979226175037572  7.2885307378820237   T   T   T
  0.2165186800455358 10.4691141814103013  7.0884938437352760   T   T   T
  3.7023212345557108 10.4691089943420863  7.1885114956056357   T   T   T
  7.1881237890658873 10.4691038072738607  7.2885291474759981   T   T   T
 -0.8281915300694378  1.1979357696195534 14.1903364865756618   T   T   T
  2.6576110244407221  1.1979305825513404 14.2903541384459913   T   T   T
  6.1434135789509057  1.1979253954831182 14.3903717903163511   T   T   T
 -0.8281776884025014 10.4691169593896873 14.1903348961696256   T   T   T
  2.6576248661076627 10.4691117723214777 14.2903525480399658   T   T   T
  6.1434274206178330 10.4691065852532397 14.3903701999103255   T   T   T
 -1.8728878985174711  1.1979385475989173 21.2921775390100017   T   T   T
  1.6129146559926977  1.1979333605307008 21.3921951908803791   T   T   T
  5.0987172105028522  1.1979281734624823 21.4922128427507495   T   T   T
 -1.8728740568505398 10.4691197373690432 21.2921759486040010   T   T   T
  1.6129284976596294 10.4691145503008158 21.3921936004743500   T   T   T
  5.0987310521697990 10.4691093632325991 21.4922112523447559   T   T   T
  2.2246320441329535  8.0732457890251865  0.1134160411758068   T   T   T
  5.7104345986431291  8.0732406019569769  0.2134336930461607   T   T   T
  9.1962371531532838  8.0732354148887495  0.3134513449165147   T   T   T
  2.2246458857998865 17.3444269787952123  0.1134144507697763   T   T   T
  5.7104484403100653 17.3444217917269974  0.2134321026401305   T   T   T
  9.1962509948202094 17.3444166046587362  0.3134497545104843   T   T   T
  1.1799356756849235  8.0732485670045477  7.2152570936101439   T   T   T
  4.6657382301950738  8.0732433799363363  7.3152747454805089   T   T   T
  8.1515407847051922  8.0732381928681214  7.4152923973508562   T   T   T
  1.1799495173518597 17.3444297567745664  7.2152555032041210   T   T   T
  4.6657520718620127 17.3444245697063621  7.3152731550744754   T   T   T
  8.1515546263721461 17.3444193826381579  7.4152908069448316   T   T   T
  0.1352393072368905  8.0732513449839249 14.3170981460444899   T   T   T
  3.6210418617470657  8.0732461579157064 14.4171157979148123   T   T   T
  7.1068444162572435  8.0732409708474684 14.5171334497852023   T   T   T
  0.1352531489038270 17.3444325347538886 14.3170965556384751   T   T   T
  3.6210557034139983 17.3444273476856665 14.4171142075087957   T   T   T
  7.1068582579241770 17.3444221606174622 14.5171318593791518   T   T   T
 -0.0406207612077444  5.8335233744494710  3.6143281256671345   T   T   T
  3.4451817933024222  5.8335181873812623  3.7143457775374906   T   T   T
  6.9309843478125996  5.8335130003130438  3.8143634294078428   T   T   T
 -0.0406069195408074 15.1047045642196203  3.6143265352611063   T   T   T
  3.4451956349693660 15.1046993771513804  3.7143441871314602   T   T   T
  6.9309981894795323 15.1046941900831726  3.8143618390018079   T   T   T
 -1.0853171296557778  5.8335261524288526 10.7161691781014632   T   T   T
  2.4004854248543759  5.8335209653606253 10.8161868299718176   T   T   T
  5.8862879793645346  5.8335157782924041 10.9162044818421631   T   T   T
 -1.0853032879888411 15.1047073421989904 10.7161675876954199   T   T   T
  2.4004992665213143 15.1047021551307612 10.8161852395657867   T   T   T
  5.8863018210314797 15.1046969680625516 10.9162028914361393   T   T   T
 -2.1300134981038146  5.8335289304082192 17.8180102305357586   T   T   T
  1.3557890564063484  5.8335237433399794 17.9180278824060721   T   T   T
  4.8415916109164989  5.8335185562717564 18.0180455342765313   T   T   T
 -2.1299996564368757 15.1047101201783303 17.8180086401297224   T   T   T
  1.3558028980732859 15.1047049331101046 17.9180262920000324   T   T   T
  4.8416054525834502 15.1046997460418986 18.0180439438705164   T   T   T
  2.4817576437193059  3.4376554062159008  3.5875833496499934   T   T   T
  5.9675601982294779  3.4376502191476810  3.6876010015203446   T   T   T
  9.4533627527396309  3.4376450320794625  3.7876186533906964   T   T   T
  2.4817714853862434 12.7088365959860159  3.5875817592439598   T   T   T
  5.9675740398964177 12.7088314089178382  3.6875994111143129   T   T   T
  9.4533765944065902 12.7088262218495860  3.7876170629846682   T   T   T
  1.4370612752712681  3.4376581841952705 10.6894244020843487   T   T   T
  4.9228638297814404  3.4376529971270475 10.7894420539546978   T   T   T
  8.4086663842915588  3.4376478100588272 10.8894597058250309   T   T   T
  1.4370751169382057 12.7088393739654038 10.6894228116783339   T   T   T
  4.9228776714483837 12.7088341868971622 10.7894404635486652   T   T   T
  8.4086802259585021 12.7088289998289703 10.8894581154190142   T   T   T
  0.3923649068232307  3.4376609621746299 17.7912654545185198   T   T   T
  3.8781674613334025  3.4376557751064132 17.8912831063889577   T   T   T
  7.3639700158436021  3.4376505880381911 17.9913007582593565   T   T   T
  0.3923787484901673 12.7088421519447667 17.7912638641124730   T   T   T
  3.8781813030003316 12.7088369648765358 17.8912815159829357   T   T   T
  7.3639838575105312 12.7088317778083155 17.9912991678533132   T   T   T
  0.4310606495528850  0.8824009906794202  2.8305979166099471   T   T   T
  3.9168632040630680  0.8823958036112017  2.9306155684803024   T   T   T
  7.4026657585732414  0.8823906165429859  3.0306332203506541   T   T   T
  0.4310744912198224 10.1535821804495328  2.8305963262039135   T   T   T
  3.9168770457299948 10.1535769933813249  2.9306139780742715   T   T   T
  7.4026796002401856 10.1535718063130904  3.0306316299446214   T   T   T
 -0.6136357188951511  0.8824037686587844  9.9324389690442789   T   T   T
  2.8721668356150225  0.8823985815905655 10.0324566209146617   T   T   T
  6.3579693901252270  0.8823933945223487 10.1324742727850268   T   T   T
 -0.6136218772282175 10.1535849584288833  9.9324373786382445   T   T   T
  2.8721806772819591 10.1535797713606843 10.0324550305086220   T   T   T
  6.3579832317921605 10.1535745842924658 10.1324726823789995   T   T   T
 -1.6583320873431846  0.8824065466381475 17.0342800214785512   T   T   T
  1.8274704671669733  0.8824013595699310 17.1342976733488683   T   T   T
  5.3132730216771611  0.8823961725017115 17.2343153252192884   T   T   T
 -1.6583182456762535 10.1535877364082534 17.0342784310725079   T   T   T
  1.8274843088339134 10.1535825493400367 17.1342960829428286   T   T   T
  5.3132868633441044 10.1535773622718342 17.2343137348132807   T   T   T
  2.0100762329586801  8.3887777899859621  4.3713135587071896   T   T   T
  5.4958787874688300  8.3887726029177418  4.4713312105775236   T   T   T
  8.9816813419789696  8.3887674158495145  4.5713488624478984   T   T   T
  2.0100900746256141 17.6599589797559453  4.3713119683011632   T   T   T
  5.4958926291357804 17.6599537926877481  4.4713296201714998   T   T   T
  8.9816951836459129 17.6599486056195438  4.5713472720418631   T   T   T
  0.9653798645106415  8.3887805679653162 11.4731546111414833   T   T   T
  4.4511824190207667  8.3887753808971013 11.5731722630118270   T   T   T
  7.9369849735309836  8.3887701938288828 11.6731899148821938   T   T   T
  0.9653937061775776 17.6599617577353456 11.4731530207354542   T   T   T
  4.4511962606877011 17.6599565706670951 11.5731706726057961   T   T   T
  7.9369988151979083 17.6599513835989193 11.6731883244761629   T   T   T
 -0.0793165039373955  8.3887833459446703 18.5749956635757378   T   T   T
  3.4064860505727719  8.3887781588764607 18.6750133154462041   T   T   T
  6.8922886050829559  8.3887729718082245 18.7750309673166029   T   T   T
 -0.0793026622704596 17.6599645357147317 18.5749940731697301   T   T   T
  3.4064998922397121 17.6599593486464741 18.6750117250401821   T   T   T
  6.8923024467498939 17.6599541615782769 18.7750293769105419   T   T   T
  0.7895188539046519  5.5179906969897283  0.7703846990184099   T   T   T
  4.2753214084147801  5.5179855099215116  0.8704023508887623   T   T   T
  7.7611239629249882  5.5179803228532966  0.9704200027591160   T   T   T
  0.7895326955715892 14.7891718867598261  0.7703831086123786   T   T   T
  4.2753352500817208 14.7891666996915987  0.8704007604827327   T   T   T
  7.7611378045918933 14.7891615126233926  0.9704184123530853   T   T   T
 -0.2551775145433850  5.5179934749690860  7.8722257514527554   T   T   T
  3.2306250399667853  5.5179882879008701  7.9722434033231160   T   T   T
  6.7164275944769587  5.5179831008326667  8.0722610551934473   T   T   T
 -0.2551636728764486 14.7891746647391980  7.8722241610467236   T   T   T