 C  H  O 
 1.0000000000000000
    25.0000000000000000    0.0000000000000000    0.0000000000000000
     0.0000000000000000   25.0000000000000000    0.0000000000000000
     0.0000000000000000    0.0000000000000000   25.0000000000000000
 C   H   O  
   3   6   3
Cartesian
 11.2594349999999999 11.7330150000000017 11.9898150000000001
 13.1697349999999993 13.0352250000000023 11.9890950000000007
 11.2611150000000002 13.7825950000000006 13.0595549999999996
 14.2562849999999983 12.9869050000000019 12.0799450000000004
 10.9111249999999984 12.1964550000000020 11.0443550000000013
 10.9075749999999996 10.7038250000000019 12.0799050000000001
 10.9110749999999985 14.2961750000000016 13.9566250000000007
 10.9114449999999987 14.2939850000000028 12.1397750000000002
 12.8658849999999987 13.5281850000000006 11.0433750000000011
 12.6773749999999978 11.7052250000000022 12.0081350000000011
 12.6792649999999991 13.7829550000000012 13.0903750000000016
 10.7437149999999981 12.4623050000000006 13.0917250000000003
