 C  O 
 1.0000000000000000
    25.0000000000000000    0.0000000000000000    0.0000000000000000
     0.0000000000000000   25.0000000000000000    0.0000000000000000
     0.0000000000000000    0.0000000000000000   25.0000000000000000
 C   O  
   1   2
Cartesian
 12.5006149999999998 12.4992249999999991 12.5016350000000003
 13.1796650000000000 11.8200149999999997 11.8351950000000006
 11.8203350000000000 13.1799849999999985 13.1648050000000012
