 C  N  H 
 1.0000000000000000
    15.1524485067022905   -0.0000000000000000    0.1872739102043263
    -0.0000000000000000   10.6812053425816007   -0.0000000000000000
    -9.2690159895770581   -0.0000000000000000   17.7214722072696489
 C   N   H  
  96  64 128
Selective dynamics
Cartesian
  0.3510884480580245  1.1686802235366258  1.6074960466612842   T   T   T
  7.9273127014091740  1.1686802235366258  1.7011330017634489   T   T   T
  0.3510884480580244  6.5092828948274102  1.6074960466612838   T   T   T
  7.9273127014091740  6.5092828948274102  1.7011330017634489   T   T   T
 -4.2834195467304523  1.1686802235366258 10.4682321502961297   T   T   T
  3.2928047066206494  1.1686802235366258 10.5618691053983031   T   T   T
 -4.2834195467304523  6.5092828948274102 10.4682321502961297   T   T   T
  3.2928047066206494  6.5092828948274102 10.5618691053983031   T   T   T
  2.5906283401641188  4.1719224477541568  7.3468771023298709   T   T   T
 10.1668525935152552  4.1719224477541568  7.4405140574320257   T   T   T
  2.5906283401641188  9.5125251190449376  7.3468771023298718   T   T   T
 10.1668525935152552  9.5125251190449376  7.4405140574320257   T   T   T
 -2.0438796546243858  4.1719224477541568 16.2076132059647087   T   T   T
  5.5323445987267235  4.1719224477541568 16.3012501610669069   T   T   T
 -2.0438796546243863  9.5125251190449376 16.2076132059647087   T   T   T
  5.5323445987267235  9.5125251190449376 16.3012501610669069   T   T   T
  4.9078823375583731  3.8389815591820193  2.9165090505124329   T   T   T
 12.4841065909095512  3.8389815591820189  3.0101460056145970   T   T   T
  4.9078823375583731  9.1795842304728037  2.9165090505124329   T   T   T
 12.4841065909095512  9.1795842304728037  3.0101460056145970   T   T   T
  0.2733743427698631  3.8389815591820198 11.7772451541472787   T   T   T
  7.8495985961209982  3.8389815591820189 11.8708821092494663   T   T   T
  0.2733743427698630  9.1795842304728037 11.7772451541472787   T   T   T
  7.8495985961209982  9.1795842304728037 11.8708821092494681   T   T   T
 -1.9661655493362258  1.5016211121087666  6.0378640984787166   T   T   T
  5.6100587040149028  1.5016211121087666  6.1315010535808767   T   T   T
 -1.9661655493362258  6.8422237833995512  6.0378640984787166   T   T   T
  5.6100587040149028  6.8422237833995512  6.1315010535808758   T   T   T
 -6.6006735441247626  1.5016211121087666 14.8986002021135757   T   T   T
  0.9755507092263870  1.5016211121087661 14.9922371572157260   T   T   T
 -6.6006735441247626  6.8422237833995512 14.8986002021135757   T   T   T
  0.9755507092263870  6.8422237833995512 14.9922371572157243   T   T   T
  0.9727551575275205  2.9579022750903987  2.6640364188319721   T   T   T
  8.5489794108786228  2.9579022750903987  2.7576733739341379   T   T   T
  0.9727551575275204  8.2985049463811613  2.6640364188319721   T   T   T
  8.5489794108786228  8.2985049463811613  2.7576733739341366   T   T   T
 -3.6617528372610009  2.9579022750903987 11.5247725224668329   T   T   T
  3.9144714160901382  2.9579022750903987 11.6184094775689850   T   T   T
 -3.6617528372610009  8.2985049463811613 11.5247725224668329   T   T   T
  3.9144714160901382  8.2985049463811613 11.6184094775689850   T   T   T
  1.9689616306946289  2.3827003962003870  6.2903367301591713   T   T   T
  9.5451858840457611  2.3827003962003870  6.3839736852613305   T   T   T
  1.9689616306946287  7.7233030674911793  6.2903367301591713   T   T   T
  9.5451858840457611  7.7233030674911793  6.3839736852613314   T   T   T
 -2.6655463640938866  2.3827003962003870 15.1510728337940357   T   T   T
  4.9106778892572400  2.3827003962003870 15.2447097888961967   T   T   T
 -2.6655463640938866  7.7233030674911793 15.1510728337940357   T   T   T
  4.9106778892572400  7.7233030674911793 15.2447097888961967   T   T   T
  4.2862156280888764  0.2876009394450048  1.8599686783417466   T   T   T
 11.8624398814399878  0.2876009394450048  1.9536056334439127   T   T   T
  4.2862156280888764  5.6282036107357936  1.8599686783417462   T   T   T
 11.8624398814399878  5.6282036107357936  1.9536056334439127   T   T   T
 -0.3482923666996303  0.2876009394450048 10.7207047819765933   T   T   T
  7.2279318866515183  0.2876009394450048 10.8143417370787507   T   T   T
 -0.3482923666996304  5.6282036107357936 10.7207047819765933   T   T   T
  7.2279318866515183  5.6282036107357936 10.8143417370787507   T   T   T
 -1.3444988398667352  5.0530017318457778  7.0944044706494074   T   T   T
  6.2317254134844049  5.0530017318457778  7.1880414257515692   T   T   T
 -1.3444988398667355 10.3936044031365675  7.0944044706494056   T   T   T
  6.2317254134844049 10.3936044031365675  7.1880414257515692   T   T   T
 -5.9790068346552685  5.0530017318457778 15.9551405742842718   T   T   T
  1.5972174186958803  5.0530017318457778 16.0487775293864274   T   T   T
 -5.9790068346552685 10.3936044031365675 15.9551405742842718   T   T   T
  1.5972174186958805 10.3936044031365675 16.0487775293864274   T   T   T
  1.6535464366363841  2.9532211450569830  1.4688160084559327   T   T   T
  9.2297706899874949  2.9532211450569830  1.5624529635580975   T   T   T
  1.6535464366363841  8.2938238163477784  1.4688160084559327   T   T   T
  9.2297706899874949  8.2938238163477784  1.5624529635580973   T   T   T
 -2.9809615581521336  2.9532211450569830 10.3295521120907789   T   T   T
  4.5952626951989872  2.9532211450569830 10.4231890671929364   T   T   T
 -2.9809615581521336  8.2938238163477784 10.3295521120907789   T   T   T
  4.5952626951989872  8.2938238163477784 10.4231890671929364   T   T   T
  1.2881703515857648  2.3873815262338050  7.4855571405352253   T   T   T
  8.8643946049368711  2.3873815262338050  7.5791940956373978   T   T   T
  1.2881703515857648  7.7279841975245818  7.4855571405352253   T   T   T
  8.8643946049368711  7.7279841975245818  7.5791940956373978   T   T   T
 -3.3463376432027570  2.3873815262338050 16.3462932441700559   T   T   T
  4.2298866101483519  2.3873815262338050 16.4399301992722506   T   T   T
 -3.3463376432027570  7.7279841975245818 16.3462932441700559   T   T   T
  4.2298866101483519  7.7279841975245818 16.4399301992722506   T   T   T
  3.6054243489800148  0.2829198094115877  3.0551890887177864   T   T   T
 11.1816486023311246  0.2829198094115877  3.1488260438199505   T   T   T
  3.6054243489800148  5.6235224807023965  3.0551890887177864   T   T   T
 11.1816486023311246  5.6235224807023965  3.1488260438199505   T   T   T
 -1.0290836458084907  0.2829198094115878 11.9159251923526330   T   T   T
  6.5471406075426577  0.2829198094115877 12.0095621474548171   T   T   T
 -1.0290836458084907  5.6235224807023965 11.9159251923526330   T   T   T
  6.5471406075426577  5.6235224807023965 12.0095621474548171   T   T   T
 -0.6637075607578754  5.0576828618791820  5.8991840602733498   T   T   T
  6.9125166925932628  5.0576828618791820  5.9928210153755259   T   T   T
 -0.6637075607578755 10.3982855331699717  5.8991840602733490   T   T   T
  6.9125166925932628 10.3982855331699717  5.9928210153755250   T   T   T
 -5.2982155555463963  5.0576828618791820 14.7599201639082178   T   T   T
  2.2780086978047316  5.0576828618791820 14.8535571190103894   T   T   T
 -5.2982155555463963 10.3982855331699717 14.7599201639082178   T   T   T
  2.2780086978047316 10.3982855331699717 14.8535571190103894   T   T   T
  1.2466449035239351  1.8086621273837116  0.8040022383142011   T   T   T
  8.8228691568750452  1.8086621273837116  0.8976391934163656   T   T   T
  1.2466449035239351  7.1492647986744977  0.8040022383142013   T   T   T
  8.8228691568750452  7.1492647986744977  0.8976391934163656   T   T   T
 -3.3878630912645882  1.8086621273837116  9.6647383419490609   T   T   T
  4.1883611620865366  1.8086621273837116  9.7583752970512272   T   T   T
 -3.3878630912645882  7.1492647986744977  9.6647383419490609   T   T   T
  4.1883611620865366  7.1492647986744977  9.7583752970512272   T   T   T
  1.6950718846982145  3.5319405439070759  8.1503709106769460   T   T   T
  9.2712961380493137  3.5319405439070759  8.2440078657791087   T   T   T
  1.6950718846982142  8.8725432151978509  8.1503709106769460   T   T   T
  9.2712961380493137  8.8725432151978509  8.2440078657791087   T   T   T
 -2.9394361100903073  3.5319405439070759 17.0111070143117900   T   T   T
  4.6367881432608113  3.5319405439070759 17.1047439694139634   T   T   T
 -2.9394361100903077  8.8725432151978509 17.0111070143117900   T   T   T
  4.6367881432608113  8.8725432151978509 17.1047439694139634   T   T   T
  4.0123258820924619  4.4789634630291033  3.7200028588595262   T   T   T
 11.5885501354435689  4.4789634630291033  3.8136398139616885   T   T   T
  4.0123258820924619  9.8195661343198974  3.7200028588595262   T   T   T
 11.5885501354435689  9.8195661343198974  3.8136398139616885   T   T   T
 -0.6221821126960444  4.4789634630291033 12.5807389624943706   T   T   T
  6.9540421406550852  4.4789634630291033 12.6743759175965334   T   T   T
 -0.6221821126960442  9.8195661343198974 12.5807389624943706   T   T   T
  6.9540421406550852  9.8195661343198974 12.6743759175965334   T   T   T
 -1.0706090938703197  0.8616392082616817  5.2343702901316247   T   T   T
  6.5056151594808265  0.8616392082616817  5.3280072452337937   T   T   T
 -1.0706090938703199  6.2022418795524592  5.2343702901316229   T   T   T
  6.5056151594808265  6.2022418795524592  5.3280072452337937   T   T   T
 -5.7051170886588247  0.8616392082616817 14.0951063937664998   T   T   T
  1.8711071646922923  0.8616392082616817 14.1887433488686643   T   T   T
 -5.7051170886588247  6.2022418795524592 14.0951063937664998   T   T   T
  1.8711071646922923  6.2022418795524592 14.1887433488686643   T   T   T
  0.1558004036037000  1.8351481626922133  2.7475344195906919   T   T   T
  7.7320246569548354  1.8351481626922133  2.8411713746928604   T   T   T
  0.1558004036037000  7.1757508339829963  2.7475344195906910   T   T   T
  7.7320246569548354  7.1757508339829963  2.8411713746928604   T   T   T
 -4.4787075911848007  1.8351481626922133 11.6082705232255634   T   T   T
  3.0975166621663197  1.8351481626922133 11.7019074783277297   T   T   T
 -4.4787075911848007  7.1757508339829963 11.6082705232255652   T   T   T
  3.0975166621663197  7.1757508339829963 11.7019074783277297   T   T   T
  2.7859163846184396  3.5054545085985769  6.2068387294004550   T   T   T
 10.3621406379695760  3.5054545085985764  6.3004756845026177   T   T   T
  2.7859163846184396  8.8460571798893604  6.2068387294004550   T   T   T
 10.3621406379695760  8.8460571798893604  6.3004756845026177   T   T   T
 -1.8485916101700661  3.5054545085985764 15.0675748330353088   T   T   T
  5.7276326431810594  3.5054545085985764 15.1612117881374679   T   T   T
 -1.8485916101700661  8.8460571798893604 15.0675748330353088   T   T   T
  5.7276326431810594  8.8460571798893604 15.1612117881374679   T   T   T
  5.1031703820127063  4.5054494983376072  1.7764706775830250   T   T   T
 12.6793946353638756  4.5054494983376072  1.8701076326851895   T   T   T
  5.1031703820127063  9.8460521696283809  1.7764706775830250   T   T   T
 12.6793946353638756  9.8460521696283809  1.8701076326851895   T   T   T
  0.4686623872241881  4.5054494983376072 10.6372067812178681   T   T   T
  8.0448866405753279  4.5054494983376072 10.7308437363200273   T   T   T
  0.4686623872241882  9.8460521696283809 10.6372067812178681   T   T   T
  8.0448866405753279  9.8460521696283809 10.7308437363200273   T   T   T
 -2.1614535937905486  0.8351531729531817  7.1779024714081316   T   T   T
  5.4147706595605642  0.8351531729531817  7.2715394265102899   T   T   T
 -2.1614535937905486  6.1757558442439606  7.1779024714081316   T   T   T
  5.4147706595605642  6.1757558442439606  7.2715394265102899   T   T   T
 -6.7959615885790869  0.8351531729531817 16.0386385750429987   T   T   T
  0.7802626647720595  0.8351531729531817 16.1322755301451686   T   T   T
 -6.7959615885790869  6.1757558442439606 16.0386385750429987   T   T   T
  0.7802626647720595  6.1757558442439606 16.1322755301451686   T   T   T
 -3.0264443393668854  1.4765130859282283  8.7515009666286705   T   T   T
  4.5497799139842208  1.4765130859282278  8.8451379217308208   T   T   T
 -3.0264443393668854  6.8171157572190113  8.7515009666286705   T   T   T
  4.5497799139842208  6.8171157572190113  8.8451379217308208   T   T   T
 -7.6609523341554144  1.4765130859282278 17.6122370702635180   T   T   T
 -0.0847280808042636  1.4765130859282278 17.7058740253655742   T   T   T
 -7.6609523341554144  6.8171157572190113 17.6122370702635180   T   T   T
 -0.0847280808042636  6.8171157572190113 17.7058740253655742   T   T   T
  5.9681611275890454  3.8640895853625592  0.2028721823624990   T   T   T
 13.5443853809401418  3.8640895853625592  0.2965091374646621   T   T   T
  5.9681611275890454  9.2046922566533560  0.2028721823624990   T   T   T
 13.5443853809401418  9.2046922566533560  0.2965091374646621   T   T   T
  1.3336531328005083  3.8640895853625592  9.0636082859973346   T   T   T
  8.9098773861515674  3.8640895853625592  9.1572452410995098   T   T   T
  1.3336531328005083  9.2046922566533560  9.0636082859973346   T   T   T
  8.9098773861515674  9.2046922566533560  9.1572452410995098   T   T   T
  3.6509071301947671  4.1468144215736134  4.6332402341799206   T   T   T
 11.2271313835458653  4.1468144215736134  4.7268771892821020   T   T   T
  3.6509071301947675  9.4874170928643924  4.6332402341799206   T   T   T
 11.2271313835458653  9.4874170928643924  4.7268771892821020   T   T   T
 -0.9836008645937446  4.1468144215736134 13.4939763378147539   T   T   T
  6.5926233887574064  4.1468144215736134 13.5876132929169309   T   T   T
 -0.9836008645937446  9.4874170928643924 13.4939763378147539   T   T   T
  6.5926233887574064  9.4874170928643924 13.5876132929169309   T   T   T
 -0.7091903419726221  1.1937882497171668  4.3211329148112112   T   T   T
  6.8670339113785079  1.1937882497171668  4.4147698699133873   T   T   T
 -0.7091903419726223  6.5343909210079376  4.3211329148112112   T   T   T
  6.8670339113785079  6.5343909210079376  4.4147698699133873   T   T   T
 -5.3436983367611353  1.1937882497171668 13.1818690184461076   T   T   T
  2.2325259165899847  1.1937882497171670 13.2755059735482739   T   T   T
 -5.3436983367611353  6.5343909210079376 13.1818690184461076   T   T   T
  2.2325259165899847  6.5343909210079376 13.2755059735482739   T   T   T
 -0.1275767381529443  0.2391563428245614  1.3466089158340273   T   T   T
  7.4486475151981812  0.2391563428245613  1.4402458709361923   T   T   T
 -0.1275767381529443  5.5797590141153632  1.3466089158340273   T   T   T
  7.4486475151981812  5.5797590141153632  1.4402458709361921   T   T   T
 -4.7620847329414557  0.2391563428245614 10.2073450194688657   T   T   T
  2.8141395204096717  0.2391563428245614 10.3009819745710338   T   T   T
 -4.7620847329414557  5.5797590141153632 10.2073450194688657   T   T   T
  2.8141395204096717  5.5797590141153632 10.3009819745710338   T   T   T
  3.0692935263750862  5.1014463284662135  7.6077642331571269   T   T   T
 10.6455177797262142  5.1014463284662135  7.7014011882592834   T   T   T
  3.0692935263750862 10.4420489997570041  7.6077642331571269   T   T   T
 10.6455177797262142 10.4420489997570041  7.7014011882592834   T   T   T
 -1.5652144684134262  5.1014463284662135 16.4685003367919194   T   T   T
  6.0110097849377002  5.1014463284662135 16.5621372918941390   T   T   T
 -1.5652144684134262 10.4420489997570041 16.4685003367919194   T   T   T
  6.0110097849377002 10.4420489997570041 16.5621372918941390   T   T   T
  5.3865475237693605  2.9094576784699537  3.1773961813396863   T   T   T
 12.9627717771204978  2.9094576784699537  3.2710331364418566   T   T   T
  5.3865475237693605  8.2500603497607390  3.1773961813396863   T   T   T
 12.9627717771204978  8.2500603497607390  3.2710331364418570   T   T   T
  0.7520395289808282  2.9094576784699537 12.0381322849745462   T   T   T
  8.3282637823318986  2.9094576784699537 12.1317692400767250   T   T   T
  0.7520395289808283  8.2500603497607390 12.0381322849745462   T   T   T
  8.3282637823318986  8.2500603497607390 12.1317692400767250   T   T   T
 -2.4448307355471939  2.4311449928208346  5.7769769676514500   T   T   T
  5.1313935178039118  2.4311449928208346  5.8706139227536136   T   T   T
 -2.4448307355471939  7.7717476641116097  5.7769769676514500   T   T   T
  5.1313935178039118  7.7717476641116097  5.8706139227536136   T   T   T
 -7.0793387303357402  2.4311449928208346 14.6377130712863064   T   T   T
  0.4968855230154147  2.4311449928208346 14.7313500263884780   T   T   T
 -7.0793387303357402  7.7717476641116097 14.6377130712863064   T   T   T
  0.4968855230154147  7.7717476641116097 14.7313500263884780   T   T   T
  1.0179609742416287  3.6878879041888379  3.4557645846466567   T   T   T
  8.5941852275927335  3.6878879041888379  3.5494015397488199   T   T   T
  1.0179609742416287  9.0284905754796103  3.4557645846466571   T   T   T
  8.5941852275927335  9.0284905754796103  3.5494015397488199   T   T   T
 -3.6165470205468875  3.6878879041888379 12.3165006882814918   T   T   T
  3.9596772328042462  3.6878879041888379 12.4101376433836421   T   T   T
 -3.6165470205468875  9.0284905754796103 12.3165006882814918   T   T   T
  3.9596772328042462  9.0284905754796103 12.4101376433836421   T   T   T
  1.9237558139805158  1.6527147671019480  5.4986085643445071   T   T   T
  9.4999800673316450  1.6527147671019484  5.5922455194466743   T   T   T
  1.9237558139805158  6.9933174383927348  5.4986085643445080   T   T   T
  9.4999800673316450  6.9933174383927348  5.5922455194466743   T   T   T
 -2.7107521808079915  1.6527147671019480 14.3593446679793839   T   T   T
  4.8654720725431302  1.6527147671019484 14.4529816230815431   T   T   T
 -2.7107521808079915  6.9933174383927348 14.3593446679793839   T   T   T
  4.8654720725431302  6.9933174383927348 14.4529816230815431   T   T   T
  4.2410098113747594  1.0175865685434453  1.0682405125270822   T   T   T
 11.8172340647258771  1.0175865685434453  1.1618774676292449   T   T   T
  4.2410098113747594  6.3581892398342292  1.0682405125270822   T   T   T
 11.8172340647258771  6.3581892398342292  1.1618774676292449   T   T   T
 -0.3934981834137408  1.0175865685434449  9.9289766161619379   T   T   T
  7.1827260699374040  1.0175865685434453 10.0226135712641007   T   T   T
 -0.3934981834137409  6.3581892398342292  9.9289766161619379   T   T   T
  7.1827260699374040  6.3581892398342292 10.0226135712641007   T   T   T
 -1.2992930231526250  4.3230161027473386  7.8861326364640654   T   T   T
  6.2769312301985076  4.3230161027473386  7.9797695915662290   T   T   T
 -1.2992930231526250  9.6636187740381345  7.8861326364640654   T   T   T
  6.2769312301985076  9.6636187740381345  7.9797695915662290   T   T   T
 -5.9338010179411675  4.3230161027473386 16.7468687400989111   T   T   T
  1.6424232354099895  4.3230161027473386 16.8405056952010419   T   T   T
 -5.9338010179411675  9.6636187740381345 16.7468687400989111   T   T   T
  1.6424232354099895  9.6636187740381345 16.8405056952010419   T   T   T
  2.3723286461780937  3.6378004045450951  1.0519056509326703   T   T   T
  9.9485528995292398  3.6378004045450951  1.1455426060348373   T   T   T
  2.3723286461780937  8.9784030758358622  1.0519056509326703   T   T   T
  9.9485528995292398  8.9784030758358622  1.1455426060348373   T   T   T
 -2.2621793486104207  3.6378004045450951  9.9126417545675221   T   T   T
  5.3140449047407152  3.6378004045450951 10.0062787096696830   T   T   T
 -2.2621793486104207  8.9784030758358622  9.9126417545675221   T   T   T
  5.3140449047407152  8.9784030758358622 10.0062787096696830   T   T   T
  0.5693881420440541  1.7028022667456897  7.9024674980584750   T   T   T
  8.1456123953951387  1.7028022667456897  7.9961044531606369   T   T   T
  0.5693881420440541  7.0434049380364785  7.9024674980584750   T   T   T
  8.1456123953951387  7.0434049380364785  7.9961044531606369   T   T   T
 -4.0651198527444539  1.7028022667456897 16.7632036016933021   T   T   T
  3.5111044006066763  1.7028022667456897 16.8568405567954898   T   T   T
 -4.0651198527444539  7.0434049380364785 16.7632036016933021   T   T   T
  3.5111044006066763  7.0434049380364785 16.8568405567954898   T   T   T
  2.8866421394383046  0.9674990688997022  3.4720994462410522   T   T   T
 10.4628663927894259  0.9674990688997024  3.5657364013432127   T   T   T
  2.8866421394383046  6.3081017401904802  3.4720994462410522   T   T   T
 10.4628663927894259  6.3081017401904802  3.5657364013432127   T   T   T
 -1.7478658553502062  0.9674990688997022 12.3328355498759041   T   T   T
  5.8283583980009164  0.9674990688997022 12.4264725049780758   T   T   T
 -1.7478658553502062  6.3081017401904802 12.3328355498759041   T   T   T
  5.8283583980009164  6.3081017401904802 12.4264725049780758   T   T   T
  0.0550746487838325  4.3731036023910796  5.4822737027500992   T   T   T
  7.6312989021349793  4.3731036023910796  5.5759106578522717   T   T   T
  0.0550746487838325  9.7137062736818827  5.4822737027500992   T   T   T
  7.6312989021349793  9.7137062736818827  5.5759106578522717   T   T   T
 -4.5794333460046719  4.3731036023910796 14.3430098063849591   T   T   T
  2.9967909073464463  4.3731036023910796 14.4366467614871219   T   T   T
 -4.5794333460046719  9.7137062736818827 14.3430098063849591   T   T   T
  2.9967909073464463  9.7137062736818827 14.4366467614871219   T   T   T
