 C  O  H 
        1.0000000000
  11.178377848512486   0.000005291111814   0.048329102671180
   0.000006598438207  13.298368956922719  -0.000001727701591
  -1.098086192309825  -0.000001874525535  11.223781765762327
   72   32   64
 Direct
   0.158968644577372   0.278874354401842   0.068471884567604
   0.158968644577372   0.778874354401842   0.068471884567604
   0.841031461972198   0.028874432732813   0.431528000272878
   0.841031461972198   0.528874432732813   0.431528000272878
   0.841031316321642   0.221125598818116   0.931528043288739
   0.841031316321642   0.721125598818116   0.931528043288739
   0.158968493470194   0.471125518806524   0.568471924825261
   0.158968493470194   0.971125518806524   0.568471924825261
   0.253154748089700   0.237338280960839   0.004870970308797
   0.253154748089700   0.737338280960839   0.004870970308797
   0.746845423473444   0.487338456076837   0.495128928233563
   0.746845423473444   0.987338456076837   0.495128928233563
   0.746845211776614   0.262661670432279   0.995128957476356
   0.746845211776614   0.762661670432279   0.995128957476356
   0.253154531196537   0.012661496456828   0.504870996679236
   0.253154531196537   0.512661496456828   0.504870996679236
   0.298787636642490   0.141394234726834   0.039572318239626
   0.298787636642490   0.641394234726834   0.039572318239626
   0.701212541963354   0.391394476910195   0.460427505925807
   0.701212541963354   0.891394476910195   0.460427505925807
   0.701212321566867   0.358605716419417   0.960427610345539
   0.701212321566867   0.858605716419417   0.960427610345539
   0.298787413215344   0.108605475134508   0.539572420521174
   0.298787413215344   0.608605475134508   0.539572420521174
   0.259135514963214   0.090247097478480   0.135612362574186
   0.259135514963214   0.590247097478480   0.135612362574186
   0.740864644319097   0.340247295697310   0.364387400094856
   0.740864644319097   0.840247295697310   0.364387400094856
   0.740864442808519   0.409752855027113   0.864387566781826
   0.740864442808519   0.909752855027113   0.864387566781826
   0.259135312385659   0.159752654710503   0.635612528247036
   0.259135312385659   0.659752654710503   0.635612528247036
   0.169624382976772   0.132211955357027   0.199711636118228
   0.169624382976772   0.632211955357027   0.199711636118228
   0.830375735461860   0.382212046742260   0.300288135246551
   0.830375735461860   0.882212046742260   0.300288135246551
   0.830375576747048   0.367787999178319   0.800288293930618
   0.830375576747048   0.867787999178319   0.800288293930618
   0.169624220991577   0.117787903186188   0.699711792357008
   0.169624220991577   0.617787903186188   0.699711792357008
   0.120225135694764   0.224532909706924   0.164844635834769
   0.120225135694764   0.724532909706924   0.164844635834769
   0.879774955463040   0.474532939281092   0.335155190340197
   0.879774955463040   0.974532939281092   0.335155190340197
   0.879774825707289   0.275467045259882   0.835155293572847
   0.879774825707289   0.775467045259882   0.835155293572847
   0.120225000056128   0.025467011442052   0.664844735311624
   0.120225000056128   0.525467011442052   0.664844735311624
   0.094561628453993   0.375841946177730   0.038456942560678
   0.094561628453993   0.875841946177730   0.038456942560678
   0.905438406076075   0.125841977458849   0.461542954576072
   0.905438406076075   0.625841977458849   0.461542954576072
   0.905438332047131   0.124158006503751   0.961542983371464
   0.905438332047131   0.624158006503751   0.961542983371464
   0.094561550847272   0.374157973369553   0.538456971008404
   0.094561550847272   0.874157973369553   0.538456971008404
   0.372021294715430   0.364971345793725   0.936298266492394
   0.372021294715430   0.864971345793724   0.936298266492394
   0.627978714550114   0.114971577907948   0.563701697765489
   0.627978714550114   0.614971577907948   0.563701697765489
   0.627978662032434   0.135028605722262   0.063701655221460
   0.627978662032434   0.635028605722262   0.063701655221460
   0.372021240208885   0.385028376438612   0.436298222969395
   0.372021240208885   0.885028376438612   0.436298222969395
   0.409065403619773   0.414240944733943   0.824933190321694
   0.409065403619773   0.914240944733943   0.824933190321694
   0.590934497870742   0.164241216054582   0.675066780344852
   0.590934497870742   0.664241216054582   0.675066780344852
   0.590934552903793   0.085759002638469   0.175066728830429
   0.590934552903793   0.585759002638469   0.175066728830429
   0.409065461393512   0.335758744316186   0.324933138887973
   0.409065461393512   0.835758744316186   0.324933138887973
   0.127079220644459   0.425421748504701   0.943484238191080
   0.127079220644459   0.925421748504701   0.943484238191080
   0.872920792695071   0.175421842536625   0.556515691463590
   0.872920792695071   0.675421842536625   0.556515691463590
   0.872920737656884   0.074578201861614   0.056515685105204
   0.872920737656884   0.574578201861614   0.056515685105204
   0.127079165259129   0.324578107907177   0.443484234908232
   0.127079165259129   0.824578107907177   0.443484234908232
   0.013781064529782   0.406866857497993   0.097706128270392
   0.013781064529782   0.906866857497993   0.097706128270392
   0.986218916637704   0.156866803792415   0.402293758074208
   0.986218916637704   0.656866803792415   0.402293758074208
   0.986218897174862   0.093133096518391   0.902293798319943
   0.986218897174862   0.593133096518391   0.902293798319943
   0.013781040702915   0.343133146578985   0.597706167752738
   0.013781040702915   0.843133146578985   0.597706167752738
   0.300928012646402   0.282736571937868   0.912507713381865
   0.300928012646402   0.782736571937868   0.912507713381865
   0.699072176480272   0.032736805306896   0.587492240143503
   0.699072176480272   0.532736805306896   0.587492240143503
   0.699071946823535   0.217263377337291   0.087492212781449
   0.699071946823535   0.717263377337291   0.087492212781449
   0.300927777308020   0.467263148833658   0.412507683182515
   0.300927777308020   0.967263148833658   0.412507683182515
   0.405055852045760   0.391688182622027   0.038467759995058
   0.405055852045760   0.891688182622027   0.038467759995058
   0.594944125365273   0.141688390525982   0.461532205255965
   0.594944125365273   0.641688390525982   0.461532205255965
   0.594944103818061   0.108311773336122   0.961532160226688
   0.594944103818061   0.608311773336123   0.961532160226688
   0.405055827022068   0.358311560082339   0.538467714551021
   0.405055827022068   0.858311560082339   0.538467714551021
   0.368193976257983   0.109710277916391   0.989937208041367
   0.368193976257983   0.609710277916391   0.989937208041367
   0.631806234730592   0.359710604184795   0.510062617963295
   0.631806234730592   0.859710604184795   0.510062617963295
   0.631805980736160   0.390289671699590   0.010062720233229
   0.631805980736160   0.890289671699590   0.010062720233229
   0.368193719648785   0.140289348848679   0.489937308111088
   0.368193719648785   0.640289348848679   0.489937308111088
   0.297976933190539   0.017900997733455   0.161024237828701
   0.297976933190539   0.517900997733455   0.161024237828701
   0.702023248012442   0.267901248221361   0.338975466272521
   0.702023248012442   0.767901248221361   0.338975466272521
   0.702023022711755   0.482098954104566   0.838975691464025
   0.702023022711755   0.982098954104566   0.838975691464025
   0.297976709784936   0.232098701362127   0.661024463835201
   0.297976709784936   0.732098701362127   0.661024463835201
   0.138976684791593   0.092937612183164   0.275227560002946
   0.138976684791593   0.592937612183164   0.275227560002946
   0.861023426342665   0.342937669763398   0.224772167565359
   0.861023426342665   0.842937669763398   0.224772167565359
   0.861023274722574   0.407062343545807   0.724772370673406
   0.861023274722574   0.907062343545807   0.724772370673406
   0.138976530520389   0.157062279157837   0.775227760969419
   0.138976530520389   0.657062279157837   0.775227760969419
   0.049687113920927   0.255998620719238   0.212728276693191
   0.049687113920927   0.755998620719238   0.212728276693191
   0.950312943039918   0.005998557690515   0.287271542797379
   0.950312943039918   0.505998557690515   0.287271542797379
   0.950312848755012   0.244001335984434   0.787271653167711
   0.950312848755012   0.744001335984434   0.787271653167711
   0.049687011957860   0.494001392907095   0.712728381906464
   0.049687011957860   0.994001392907095   0.712728381906464
   0.454314090099850   0.484990936756904   0.848435622007606
   0.454314090099850   0.984990936756904   0.848435622007606
   0.545685618997389   0.234991178977481   0.651564333473675
   0.545685618997389   0.734991178977481   0.651564333473675
   0.545685856325351   0.015009015921669   0.151564291648414
   0.545685856325351   0.515009015921669   0.151564291648414
   0.454314341274380   0.265008781014674   0.348435582148257
   0.454314341274380   0.765008781014674   0.348435582148257
   0.331730552035093   0.425908703625105   0.760303735780243
   0.331730552035093   0.925908703625105   0.760303735780243
   0.668269340831448   0.175909018470939   0.739696209963837
   0.668269340831448   0.675909018470939   0.739696209963837
   0.668269406836923   0.074091232239016   0.239696177304830
   0.668269406836923   0.574091232239016   0.239696177304830
   0.331730620839688   0.324090943641625   0.260303706100947
   0.331730620839688   0.824090943641625   0.260303706100947
   0.471029410935374   0.364478991892077   0.783510180544745
   0.471029410935374   0.864478991892077   0.783510180544745
   0.528970642606016   0.114479258474837   0.716489813573294
   0.528970642606016   0.614479258474837   0.716489813573294
   0.528970555719192   0.135520957765033   0.216489748553104
   0.528970555719192   0.635520957765033   0.216489748553104
   0.471029317261562   0.385520705305010   0.283510111287298
   0.471029317261562   0.885520705305010   0.283510111287298
   0.076048527670661   0.487383675966879   0.930552699129155
   0.076048527670661   0.987383675966879   0.930552699129155
   0.923951420787637   0.237383722785045   0.569447228695176
   0.923951420787637   0.737383722785045   0.569447228695176
   0.923951431290741   0.012616274757666   0.069447223962418
   0.923951431290741   0.512616274757666   0.069447223962418
   0.076048537996169   0.262616227182548   0.430552698106917
   0.076048537996169   0.762616227182548   0.430552698106917
