O N C H
        1.0000000000
  14.304596226230593   0.000002213456878  -0.125596972272275
  -0.000002754151602  16.871164896096992   0.000005657711524
  -3.341273028762006   0.000005559983961  25.674441440771147
   64   32  256  288
 Direct
   0.075535057131202   0.430245360684747   0.112367333657763
   0.575535057131202   0.430245360684747   0.112367333657763
   0.075535057131202   0.930245360684747   0.112367333657763
   0.575535057131202   0.930245360684747   0.112367333657763
   0.075535057131202   0.430245360684747   0.612367333657763
   0.575535057131202   0.430245360684747   0.612367333657763
   0.075535057131202   0.930245360684747   0.612367333657763
   0.575535057131202   0.930245360684747   0.612367333657763
   0.174464892138622   0.180245338060916   0.137632652003878
   0.674464892138622   0.180245338060916   0.137632652003878
   0.174464892138622   0.680245338060916   0.137632652003878
   0.674464892138622   0.680245338060916   0.137632652003878
   0.174464892138622   0.180245338060916   0.637632652003878
   0.674464892138622   0.180245338060916   0.637632652003878
   0.174464892138622   0.680245338060916   0.637632652003878
   0.674464892138622   0.680245338060916   0.637632652003878
   0.424464914234835   0.069754603358270   0.387632691100447
   0.924464914234835   0.069754603358270   0.387632691100447
   0.424464914234835   0.569754603358270   0.387632691100447
   0.924464914234835   0.569754603358270   0.387632691100447
   0.424464914234835   0.069754603358270   0.887632691100448
   0.924464914234835   0.069754603358270   0.887632691100448
   0.424464914234835   0.569754603358270   0.887632691100448
   0.924464914234835   0.569754603358270   0.887632691100448
   0.325535094193743   0.319754667890103   0.362367334190879
   0.825535094193743   0.319754667890103   0.362367334190879
   0.325535094193743   0.819754667890103   0.362367334190879
   0.825535094193743   0.819754667890103   0.362367334190879
   0.325535094193743   0.319754667890103   0.862367334190880
   0.825535094193743   0.319754667890103   0.862367334190880
   0.325535094193743   0.819754667890103   0.862367334190880
   0.825535094193743   0.819754667890103   0.862367334190880
   0.172915853403319   0.253805058345974   0.401300722276392
   0.672915853403319   0.253805058345974   0.401300722276392
   0.172915853403319   0.753805058345974   0.401300722276392
   0.672915853403319   0.753805058345974   0.401300722276392
   0.172915853403319   0.253805058345974   0.901300722276392
   0.672915853403319   0.253805058345974   0.901300722276392
   0.172915853403319   0.753805058345974   0.901300722276392
   0.672915853403319   0.753805058345974   0.901300722276392
   0.077084190400239   0.503804969417237   0.348699387266323
   0.577084190400239   0.503804969417237   0.348699387266323
   0.077084190400239   1.003804969417237   0.348699387266323
   0.577084190400239   1.003804969417237   0.348699387266323
   0.077084190400239   0.503804969417237   0.848699387266323
   0.577084190400239   0.503804969417237   0.848699387266323
   0.077084190400239   1.003804969417237   0.848699387266323
   0.577084190400239   1.003804969417237   0.848699387266323
   0.327084141746977   0.246194969505456   0.098699284953517
   0.827084141746977   0.246194969505456   0.098699284953517
   0.327084141746977   0.746194969505456   0.098699284953517
   0.827084141746977   0.746194969505456   0.098699284953517
   0.327084141746977   0.246194969505456   0.598699284953517
   0.827084141746977   0.246194969505456   0.598699284953517
   0.327084141746977   0.746194969505456   0.598699284953517
   0.827084141746977   0.746194969505456   0.598699284953517
   0.422915834061700  -0.003804963042586   0.151300606407055
   0.922915834061700  -0.003804963042586   0.151300606407055
   0.422915834061700   0.496195036957414   0.151300606407055
   0.922915834061700   0.496195036957414   0.151300606407055
   0.422915834061700  -0.003804963042586   0.651300606407055
   0.922915834061700  -0.003804963042586   0.651300606407055
   0.422915834061700   0.496195036957414   0.651300606407055
   0.922915834061700   0.496195036957414   0.651300606407055
   0.024688538931375   0.298323247138869   0.414176382311894
   0.524688538931375   0.298323247138869   0.414176382311894
   0.024688538931375   0.798323247138869   0.414176382311894
   0.524688538931375   0.798323247138869   0.414176382311894
   0.024688538931375   0.298323247138869   0.914176382311894
   0.524688538931375   0.298323247138869   0.914176382311894
   0.024688538931375   0.798323247138869   0.914176382311894
   0.524688538931375   0.798323247138869   0.914176382311894
   0.225311495374821   0.048323158180562   0.335823685074028
   0.725311495374821   0.048323158180562   0.335823685074028
   0.225311495374821   0.548323158180562   0.335823685074028
   0.725311495374821   0.548323158180562   0.335823685074028
   0.225311495374821   0.048323158180562   0.835823685074028
   0.725311495374821   0.048323158180562   0.835823685074028
   0.225311495374821   0.548323158180562   0.835823685074028
   0.725311495374821   0.548323158180562   0.835823685074028
   0.475311458434838   0.201676791940259   0.085823622263118
   0.975311458434838   0.201676791940259   0.085823622263118
   0.475311458434838   0.701676791940259   0.085823622263118
   0.975311458434838   0.701676791940259   0.085823622263118
   0.475311458434838   0.201676791940259   0.585823622263118
   0.975311458434838   0.201676791940259   0.585823622263118
   0.475311458434838   0.701676791940259   0.585823622263118
   0.975311458434838   0.701676791940259   0.585823622263118
   0.274688539746873   0.451676805911444   0.164176289705043
   0.774688539746873   0.451676805911444   0.164176289705043
   0.274688539746873   0.951676805911444   0.164176289705043
   0.774688539746873   0.951676805911444   0.164176289705043
   0.274688539746873   0.451676805911444   0.664176289705043
   0.774688539746873   0.451676805911444   0.664176289705043
   0.274688539746873   0.951676805911444   0.664176289705043
   0.774688539746873   0.951676805911444   0.664176289705043
   0.040468079357513   0.329214443311208   0.463820065882571
   0.540468079357513   0.329214443311208   0.463820065882571
   0.040468079357513   0.829214443311208   0.463820065882571
   0.540468079357513   0.829214443311208   0.463820065882571
   0.040468079357513   0.329214443311208   0.963820065882571
   0.540468079357513   0.329214443311208   0.963820065882571
   0.040468079357513   0.829214443311208   0.963820065882571
   0.540468079357513   0.829214443311208   0.963820065882571
   0.209531927778777   0.079214385923021   0.286179987961385
   0.709531927778777   0.079214385923021   0.286179987961385
   0.209531927778777   0.579214385923021   0.286179987961385
   0.709531927778777   0.579214385923021   0.286179987961385
   0.209531927778777   0.079214385923021   0.786179987961385
   0.709531927778777   0.079214385923021   0.786179987961385
   0.209531927778777   0.579214385923021   0.786179987961385
   0.709531927778777   0.579214385923021   0.786179987961385
   0.459531913534482   0.170785596848303   0.036179938446702
   0.959531913534482   0.170785596848303   0.036179938446702
   0.459531913534482   0.670785596848303   0.036179938446702
   0.959531913534482   0.670785596848303   0.036179938446702
   0.459531913534482   0.170785596848303   0.536179938446702
   0.959531913534482   0.170785596848303   0.536179938446702
   0.459531913534482   0.670785596848303   0.536179938446702
   0.959531913534482   0.670785596848303   0.536179938446702
   0.290468107722923   0.420785579415235   0.213819987963947
   0.790468107722923   0.420785579415235   0.213819987963947
   0.290468107722923   0.920785579415235   0.213819987963947
   0.790468107722923   0.920785579415235   0.213819987963947
   0.290468107722923   0.420785579415235   0.713819987963947
   0.790468107722923   0.420785579415235   0.713819987963947
   0.290468107722923   0.920785579415235   0.713819987963947
   0.790468107722923   0.920785579415235   0.713819987963947
   0.125585218838165   0.318929415990554  -0.001206850292775
   0.625585218838165   0.318929415990554  -0.001206850292775
   0.125585218838165   0.818929415990554  -0.001206850292775
   0.625585218838165   0.818929415990554  -0.001206850292775
   0.125585218838165   0.318929415990554   0.498793149707225
   0.625585218838165   0.318929415990554   0.498793149707225
   0.125585218838165   0.818929415990554   0.498793149707225
   0.625585218838165   0.818929415990554   0.498793149707225
   0.124414755714039   0.068929414846746   0.251206931522173
   0.624414755714039   0.068929414846746   0.251206931522173
   0.124414755714039   0.568929414846746   0.251206931522173
   0.624414755714039   0.568929414846746   0.251206931522173
   0.124414755714039   0.068929414846746   0.751206931522173
   0.624414755714039   0.068929414846746   0.751206931522173
   0.124414755714039   0.568929414846746   0.751206931522173
   0.624414755714039   0.568929414846746   0.751206931522173
   0.374414776305896   0.181070627443967   0.501206852717767
   0.874414776305896   0.181070627443967   0.501206852717767
   0.374414776305896   0.681070627443967   0.501206852717767
   0.874414776305896   0.681070627443967   0.501206852717767
   0.374414776305896   0.181070627443967   1.001206852717767
   0.874414776305896   0.181070627443967   1.001206852717767
   0.374414776305896   0.681070627443967   1.001206852717767
   0.874414776305896   0.681070627443967   1.001206852717767
   0.375585260996352   0.431070579058740   0.248793055931457
   0.875585260996352   0.431070579058740   0.248793055931457
   0.375585260996352   0.931070579058740   0.248793055931457
   0.875585260996352   0.931070579058740   0.248793055931457
   0.375585260996352   0.431070579058740   0.748793055931457
   0.875585260996352   0.431070579058740   0.748793055931457
   0.375585260996352   0.931070579058740   0.748793055931457
   0.875585260996352   0.931070579058740   0.748793055931457
   0.135686329021157   0.352069878510109   0.047851251533503
   0.635686329021157   0.352069878510109   0.047851251533503
   0.135686329021157   0.852069878510109   0.047851251533503
   0.635686329021157   0.852069878510109   0.047851251533503
   0.135686329021157   0.352069878510109   0.547851251533503
   0.635686329021157   0.352069878510109   0.547851251533503
   0.135686329021157   0.852069878510109   0.547851251533503
   0.635686329021157   0.852069878510109   0.547851251533503
   0.114313625387461   0.102069885225220   0.202148806653334
   0.614313625387461   0.102069885225220   0.202148806653334
   0.114313625387461   0.602069885225220   0.202148806653334
   0.614313625387461   0.602069885225220   0.202148806653334
   0.114313625387461   0.102069885225220   0.702148806653334
   0.614313625387461   0.102069885225220   0.702148806653334
   0.114313625387461   0.602069885225220   0.702148806653334
   0.614313625387461   0.602069885225220   0.702148806653334
   0.364313655752067   0.147930141988131   0.452148756532848
   0.864313655752067   0.147930141988131   0.452148756532848
   0.364313655752067   0.647930141988131   0.452148756532848
   0.864313655752067   0.647930141988131   0.452148756532848
   0.364313655752067   0.147930141988131   0.952148756532848
   0.864313655752067   0.147930141988131   0.952148756532848
   0.364313655752067   0.647930141988131   0.952148756532848
   0.864313655752067   0.647930141988131   0.952148756532848
   0.385686376245699   0.397930114760569   0.297851182295724
   0.885686376245699   0.397930114760569   0.297851182295724
   0.385686376245699   0.897930114760568   0.297851182295724
   0.885686376245699   0.897930114760568   0.297851182295724
   0.385686376245699   0.397930114760569   0.797851182295724
   0.885686376245699   0.397930114760569   0.797851182295724
   0.385686376245699   0.897930114760568   0.797851182295724
   0.885686376245699   0.897930114760568   0.797851182295724
   0.061857913666508   0.397962510205669   0.064938904615908
   0.561857913666508   0.397962510205669   0.064938904615908
   0.061857913666508   0.897962510205669   0.064938904615908
   0.561857913666508   0.897962510205669   0.064938904615908
   0.061857913666508   0.397962510205669   0.564938904615908
   0.561857913666508   0.397962510205669   0.564938904615908
   0.061857913666508   0.897962510205669   0.564938904615908
   0.561857913666508   0.897962510205669   0.564938904615908
   0.188142046810130   0.147962484245813   0.185061106317921
   0.688142046810130   0.147962484245813   0.185061106317921
   0.188142046810130   0.647962484245813   0.185061106317921
   0.688142046810130   0.647962484245813   0.185061106317921
   0.188142046810130   0.147962484245813   0.685061106317921
   0.688142046810130   0.147962484245813   0.685061106317921
   0.188142046810130   0.647962484245813   0.685061106317921
   0.688142046810130   0.647962484245813   0.685061106317921
   0.438142057523660   0.102037479484259   0.435061114159787
   0.938142057523660   0.102037479484259   0.435061114159787
   0.438142057523660   0.602037479484259   0.435061114159787
   0.938142057523660   0.602037479484259   0.435061114159787
   0.438142057523660   0.102037479484259   0.935061114159787
   0.938142057523660   0.102037479484259   0.935061114159787
   0.438142057523660   0.602037479484259   0.935061114159787
   0.938142057523660   0.602037479484259   0.935061114159787
   0.311857954385752   0.352037505261597   0.314938875696772
   0.811857954385752   0.352037505261597   0.314938875696772
   0.311857954385752   0.852037505261597   0.314938875696772
   0.811857954385752   0.852037505261597   0.314938875696772
   0.311857954385752   0.352037505261597   0.814938875696772
   0.811857954385752   0.352037505261597   0.814938875696772
   0.311857954385752   0.852037505261597   0.814938875696772
   0.811857954385752   0.852037505261597   0.814938875696772
   0.476025886273456   0.407254944820613   0.030237805037305
   0.976025886273456   0.407254944820613   0.030237805037305
   0.476025886273456   0.907254944820613   0.030237805037305
   0.976025886273456   0.907254944820613   0.030237805037305
   0.476025886273456   0.407254944820613   0.530237805037305
   0.976025886273456   0.407254944820613   0.530237805037305
   0.476025886273456   0.907254944820613   0.530237805037305
   0.976025886273456   0.907254944820613   0.530237805037305
   0.273974094265005   0.157254886339471   0.219762185595481
   0.773974094265005   0.157254886339471   0.219762185595481
   0.273974094265005   0.657254886339471   0.219762185595481
   0.773974094265005   0.657254886339471   0.219762185595481
   0.273974094265005   0.157254886339471   0.719762185595481
   0.773974094265005   0.157254886339471   0.719762185595481
   0.273974094265005   0.657254886339471   0.719762185595481
   0.773974094265005   0.657254886339471   0.719762185595481
   0.023974081248840   0.092745042385470   0.469762215575079
   0.523974081248840   0.092745042385470   0.469762215575079
   0.023974081248840   0.592745042385470   0.469762215575079
   0.523974081248840   0.592745042385470   0.469762215575079
   0.023974081248840   0.092745042385470   0.969762215575079
   0.523974081248840   0.092745042385470   0.969762215575079
   0.023974081248840   0.592745042385470   0.969762215575079
   0.523974081248840   0.592745042385470   0.969762215575079
   0.226025928035088   0.342745071294484   0.280237783524937
   0.726025928035088   0.342745071294484   0.280237783524937
   0.226025928035088   0.842745071294484   0.280237783524937
   0.726025928035088   0.842745071294484   0.280237783524937
   0.226025928035088   0.342745071294484   0.780237783524937
   0.726025928035088   0.342745071294484   0.780237783524937
   0.226025928035088   0.842745071294484   0.780237783524937
   0.726025928035088   0.842745071294484   0.780237783524937
   0.465933059985117   0.373616215705791   0.481635148921542
   0.965933059985117   0.373616215705791   0.481635148921542
   0.465933059985117   0.873616215705791   0.481635148921542
   0.965933059985117   0.873616215705791   0.481635148921542
   0.465933059985117   0.373616215705791   0.981635148921542
   0.965933059985117   0.373616215705791   0.981635148921542
   0.465933059985117   0.873616215705791   0.981635148921542
   0.965933059985117   0.873616215705791   0.981635148921542
   0.284066946491195   0.123616141797140   0.268364863061284
   0.784066946491195   0.123616141797140   0.268364863061284
   0.284066946491195   0.623616141797140   0.268364863061284
   0.784066946491195   0.623616141797140   0.268364863061284
   0.284066946491195   0.123616141797140   0.768364863061284
   0.784066946491195   0.123616141797140   0.768364863061284
   0.284066946491195   0.623616141797140   0.768364863061284
   0.784066946491195   0.623616141797140   0.768364863061284
   0.034066920515155   0.126383799359548   0.018364863496441
   0.534066920515155   0.126383799359548   0.018364863496441
   0.034066920515155   0.626383799359548   0.018364863496441
   0.534066920515155   0.626383799359548   0.018364863496441
   0.034066920515155   0.126383799359548   0.518364863496441
   0.534066920515155   0.126383799359548   0.518364863496441
   0.034066920515155   0.626383799359548   0.518364863496441
   0.534066920515155   0.626383799359548   0.518364863496441
   0.215933096634249   0.376383802088601   0.231635102282404
   0.715933096634249   0.376383802088601   0.231635102282404
   0.215933096634249   0.876383802088601   0.231635102282404
   0.715933096634249   0.876383802088601   0.231635102282404
   0.215933096634249   0.376383802088601   0.731635102282404
   0.715933096634249   0.376383802088601   0.731635102282404
   0.215933096634249   0.876383802088601   0.731635102282404
   0.715933096634249   0.876383802088601   0.731635102282404
   0.086650098308960   0.259715008058346   0.385894978382262
   0.586650098308960   0.259715008058346   0.385894978382262
   0.086650098308960   0.759715008058346   0.385894978382262
   0.586650098308960   0.759715008058346   0.385894978382262
   0.086650098308960   0.259715008058346   0.885894978382262
   0.586650098308960   0.259715008058346   0.885894978382262
   0.086650098308960   0.759715008058346   0.885894978382262
   0.586650098308960   0.759715008058346   0.885894978382262
   0.163349943426443   0.509714935069303   0.364105125658413
   0.663349943426443   0.509714935069303   0.364105125658413
   0.163349943426443   1.009714935069304   0.364105125658413
   0.663349943426443   1.009714935069304   0.364105125658413
   0.163349943426443   0.509714935069303   0.864105125658413
   0.663349943426443   0.509714935069303   0.864105125658413
   0.163349943426443   1.009714935069304   0.864105125658413
   0.663349943426443   1.009714935069304   0.864105125658413
   0.413349894943127   0.240285009690551   0.114105032810323
   0.913349894943127   0.240285009690551   0.114105032810323
   0.413349894943127   0.740285009690551   0.114105032810323
   0.913349894943127   0.740285009690551   0.114105032810323
   0.413349894943127   0.240285009690551   0.614105032810323
   0.913349894943127   0.240285009690551   0.614105032810323
   0.413349894943127   0.740285009690551   0.614105032810323
   0.913349894943127   0.740285009690551   0.614105032810323
   0.336650082730380  -0.009714934735109   0.135894861587236
   0.836650082730380  -0.009714934735109   0.135894861587236
   0.336650082730380   0.490285065264891   0.135894861587236
   0.836650082730380   0.490285065264891   0.135894861587236
   0.336650082730380  -0.009714934735109   0.635894861587236
   0.836650082730380  -0.009714934735109   0.635894861587236
   0.336650082730380   0.490285065264891   0.635894861587236
   0.836650082730380   0.490285065264891   0.635894861587236
   0.039919563488748   0.226704088409711   0.334274266975666
   0.539919563488748   0.226704088409711   0.334274266975666
   0.039919563488748   0.726704088409711   0.334274266975666
   0.539919563488748   0.726704088409711   0.334274266975666
   0.039919563488748   0.226704088409711   0.834274266975666
   0.539919563488748   0.226704088409711   0.834274266975666
   0.039919563488748   0.726704088409711   0.834274266975666
   0.539919563488748   0.726704088409711   0.834274266975666
   0.210080489083633   0.476704050334786   0.415725869305340
   0.710080489083633   0.476704050334786   0.415725869305340
   0.210080489083633   0.976704050334786   0.415725869305340
   0.710080489083633   0.976704050334786   0.415725869305340
   0.210080489083633   0.476704050334786   0.915725869305340
   0.710080489083633   0.476704050334786   0.915725869305340
   0.210080489083633   0.976704050334786   0.915725869305340
   0.710080489083633   0.976704050334786   0.915725869305340
   0.460080417579348   0.273295891907157   0.165725757649521
   0.960080417579348   0.273295891907157   0.165725757649521
   0.460080417579348   0.773295891907158   0.165725757649521
   0.960080417579348   0.773295891907158   0.165725757649521
   0.460080417579348   0.273295891907157   0.665725757649521
   0.960080417579348   0.273295891907157   0.665725757649521
   0.460080417579348   0.773295891907158   0.665725757649521
   0.960080417579348   0.773295891907158   0.665725757649521
   0.289919531438700   0.023295991488158   0.084274131079035
   0.789919531438700   0.023295991488158   0.084274131079035
   0.289919531438700   0.523295991488158   0.084274131079035
   0.789919531438700   0.523295991488158   0.084274131079035
   0.289919531438700   0.023295991488158   0.584274131079035
   0.789919531438700   0.023295991488158   0.584274131079035
   0.289919531438700   0.523295991488158   0.584274131079035
   0.789919531438700   0.523295991488158   0.584274131079035
   0.017741123779655   0.456880534982733   0.122399826100928
   0.517741123779655   0.456880534982733   0.122399826100928
   0.017741123779655   0.956880534982733   0.122399826100928
   0.517741123779655   0.956880534982733   0.122399826100928
   0.017741123779655   0.456880534982733   0.622399826100928
   0.517741123779655   0.456880534982733   0.622399826100928
   0.017741123779655   0.956880534982733   0.622399826100928
   0.517741123779655   0.956880534982733   0.622399826100928
   0.232258824515066   0.206880494292318   0.127600133931865
   0.732258824515066   0.206880494292318   0.127600133931865
   0.232258824515066   0.706880494292318   0.127600133931865
   0.732258824515066   0.706880494292318   0.127600133931865
   0.232258824515066   0.206880494292318   0.627600133931865
   0.732258824515066   0.206880494292318   0.627600133931865
   0.232258824515066   0.706880494292318   0.627600133931865
   0.732258824515066   0.706880494292318   0.627600133931865
   0.482258847630636   0.043119434155840   0.377600197883469
   0.982258847630636   0.043119434155840   0.377600197883469
   0.482258847630636   0.543119434155840   0.377600197883469
   0.982258847630636   0.543119434155840   0.377600197883469
   0.482258847630636   0.043119434155840   0.877600197883469
   0.982258847630636   0.043119434155840   0.877600197883469
   0.482258847630636   0.543119434155840   0.877600197883469
   0.982258847630636   0.543119434155840   0.877600197883469
   0.267741158967925   0.293119512713930   0.372399849479676
   0.767741158967925   0.293119512713930   0.372399849479676
   0.267741158967925   0.793119512713930   0.372399849479676
   0.767741158967925   0.793119512713930   0.372399849479676
   0.267741158967925   0.293119512713930   0.872399849479676
   0.767741158967925   0.293119512713930   0.872399849479676
   0.267741158967925   0.793119512713930   0.872399849479676
   0.767741158967925   0.793119512713930   0.872399849479676
   0.182648807484882   0.285149430196946  -0.013565101688238
   0.682648807484882   0.285149430196946  -0.013565101688238
   0.182648807484882   0.785149430196946  -0.013565101688238
   0.682648807484882   0.785149430196946  -0.013565101688238
   0.182648807484882   0.285149430196946   0.486434898311762
   0.682648807484882   0.285149430196946   0.486434898311762
   0.182648807484882   0.785149430196946   0.486434898311762
   0.682648807484882   0.785149430196946   0.486434898311762
   0.067351162766235   0.035149459695829   0.263565224808045
   0.567351162766235   0.035149459695829   0.263565224808045
   0.067351162766235   0.535149459695829   0.263565224808045
   0.567351162766235   0.535149459695829   0.263565224808045
   0.067351162766235   0.035149459695829   0.763565224808045
   0.567351162766235   0.035149459695829   0.763565224808045
   0.067351162766235   0.535149459695829   0.763565224808045
   0.567351162766235   0.535149459695829   0.763565224808045
   0.317351193359764   0.214850629742936   0.513565096343028
   0.817351193359764   0.214850629742936   0.513565096343028
   0.317351193359764   0.714850629742936   0.513565096343028
   0.817351193359764   0.714850629742936   0.513565096343028
   0.317351193359764   0.214850629742936   1.013565096343028
   0.817351193359764   0.214850629742936   1.013565096343028
   0.317351193359764   0.714850629742936   1.013565096343028
   0.817351193359764   0.714850629742936   1.013565096343028
   0.432648850261692   0.464850552588104   0.236434773341633
   0.932648850261692   0.464850552588104   0.236434773341633
   0.432648850261692   0.964850552588104   0.236434773341633
   0.932648850261692   0.964850552588104   0.236434773341633
   0.432648850261692   0.464850552588104   0.736434773341633
   0.932648850261692   0.464850552588104   0.736434773341633
   0.432648850261692   0.964850552588104   0.736434773341633
   0.932648850261692   0.964850552588104   0.736434773341633
   0.200464846921905   0.343046157147804   0.074331672278707
   0.700464846921905   0.343046157147804   0.074331672278707
   0.200464846921905   0.843046157147805   0.074331672278707
   0.700464846921905   0.843046157147805   0.074331672278707
   0.200464846921905   0.343046157147804   0.574331672278707
   0.700464846921905   0.343046157147804   0.574331672278707
   0.200464846921905   0.843046157147805   0.574331672278707
   0.700464846921905   0.843046157147805   0.574331672278707
   0.049535084864955   0.093046202886077   0.175668405579628
   0.549535084864955   0.093046202886077   0.175668405579628
   0.049535084864955   0.593046202886077   0.175668405579628
   0.549535084864955   0.593046202886077   0.175668405579628
   0.049535084864955   0.093046202886077   0.675668405579628
   0.549535084864955   0.093046202886077   0.675668405579628
   0.049535084864955   0.593046202886077   0.675668405579628
   0.549535084864955   0.593046202886077   0.675668405579628
   0.299535140219188   0.156953864853802   0.425668333802125
   0.799535140219188   0.156953864853802   0.425668333802125
   0.299535140219188   0.656953864853802   0.425668333802125
   0.799535140219188   0.656953864853802   0.425668333802125
   0.299535140219188   0.156953864853802   0.925668333802125
   0.799535140219188   0.156953864853802   0.925668333802125
   0.299535140219188   0.656953864853802   0.925668333802125
   0.799535140219188   0.656953864853802   0.925668333802125
   0.450464904225314   0.406953815566146   0.324331591123721
   0.950464904225314   0.406953815566146   0.324331591123721
   0.450464904225314   0.906953815566146   0.324331591123721
   0.950464904225314   0.906953815566146   0.324331591123721
   0.450464904225314   0.406953815566146   0.824331591123721
   0.950464904225314   0.406953815566146   0.824331591123721
   0.450464904225314   0.906953815566146   0.824331591123721
   0.950464904225314   0.906953815566146   0.824331591123721
   0.419088061976065   0.441269543406797   0.042636716812719
   0.919088061976065   0.441269543406797   0.042636716812719
   0.419088061976065   0.941269543406797   0.042636716812719
   0.919088061976065   0.941269543406797   0.042636716812719
   0.419088061976065   0.441269543406797   0.542636716812719
   0.919088061976065   0.441269543406797   0.542636716812719
   0.419088061976065   0.941269543406797   0.542636716812719
   0.919088061976065   0.941269543406797   0.542636716812719
   0.330911913245987   0.191269471903457   0.207363239182965
   0.830911913245987   0.191269471903457   0.207363239182965
   0.330911913245987   0.691269471903457   0.207363239182965
   0.830911913245987   0.691269471903457   0.207363239182965
   0.330911913245987   0.191269471903457   0.707363239182965
   0.830911913245987   0.191269471903457   0.707363239182965
   0.330911913245987   0.691269471903457   0.707363239182965
   0.830911913245987   0.691269471903457   0.707363239182965
   0.080911890742564   0.058730417850601   0.457363310530714
   0.580911890742564   0.058730417850601   0.457363310530714
   0.080911890742564   0.558730417850601   0.457363310530714
   0.580911890742564   0.558730417850601   0.457363310530714
   0.080911890742564   0.058730417850601   0.957363310530714
   0.580911890742564   0.058730417850601   0.957363310530714
   0.080911890742564   0.558730417850601   0.957363310530714
   0.580911890742564   0.558730417850601   0.957363310530714
   0.169088109627409   0.308730472803806   0.292636722364477
   0.669088109627409   0.308730472803806   0.292636722364477
   0.169088109627409   0.808730472803806   0.292636722364477
   0.669088109627409   0.808730472803806   0.292636722364477
   0.169088109627409   0.308730472803806   0.792636722364477
   0.669088109627409   0.308730472803806   0.792636722364477
   0.169088109627409   0.808730472803806   0.792636722364477
   0.669088109627409   0.808730472803806   0.792636722364477
   0.399932572638547   0.380354785188318   0.455923145474410
   0.899932572638547   0.380354785188318   0.455923145474410
   0.399932572638547   0.880354785188318   0.455923145474410
   0.899932572638547   0.880354785188318   0.455923145474410
   0.399932572638547   0.380354785188318   0.955923145474409
   0.899932572638547   0.380354785188318   0.955923145474409
   0.399932572638547   0.880354785188318   0.955923145474409