 H  C  O                                
   1.0000000000000000     
    25.0000000000000000    0.0000000000000000    0.0000000000000000
     0.0000000000000000   25.0000000000000000    0.0000000000000000
     0.0000000000000000    0.0000000000000000   25.0000000000000000
   H    C    O 
     6     4     4
Direct
  0.3565713475976315  0.4201059576979388  0.2821316536518435
  0.3034523901066327  0.1799441744508008  0.3593120108299851
  0.2878106084248483  0.2530106940865651  0.2428342995251600
  0.2227186897637099  0.2544773205512531  0.2690007851688595
  0.2435955145075709  0.3454321821950868  0.2386754597337837
  0.2421805682349738  0.3469434894808717  0.3088148169636230
  0.2634307535549251  0.2693150294757299  0.2751408987177934
  0.2637723625197132  0.3306376258117172  0.2745828296109890
  0.3201741896332628  0.3535040035915697  0.2745451490577991
  0.2833956076432167  0.2465043517277799  0.3279164335039659
  0.3610736613130539  0.3285643396500338  0.2669443768721068
  0.3194754143023247  0.4079308497954098  0.2832491868398601
  0.2907457336433102  0.2714782339648459  0.3688384944932143
  0.2913447587548096  0.1920837475204158  0.3242152050310175

  0.00000000E+00  0.00000000E+00  0.00000000E+00
  0.00000000E+00  0.00000000E+00  0.00000000E+00
  0.00000000E+00  0.00000000E+00  0.00000000E+00
  0.00000000E+00  0.00000000E+00  0.00000000E+00
  0.00000000E+00  0.00000000E+00  0.00000000E+00
  0.00000000E+00  0.00000000E+00  0.00000000E+00
  0.00000000E+00  0.00000000E+00  0.00000000E+00
  0.00000000E+00  0.00000000E+00  0.00000000E+00
  0.00000000E+00  0.00000000E+00  0.00000000E+00
  0.00000000E+00  0.00000000E+00  0.00000000E+00
  0.00000000E+00  0.00000000E+00  0.00000000E+00
  0.00000000E+00  0.00000000E+00  0.00000000E+00
  0.00000000E+00  0.00000000E+00  0.00000000E+00
  0.00000000E+00  0.00000000E+00  0.00000000E+00
