 C  H  O 
 1.0000000000000000
    13.2806678651870840    0.0000000000000000    0.0000000000000000
     0.0000000000000000   15.6524944937903321    0.0000000000000000
     0.0000000000000000   -0.0000000000000000   12.4441475448089438
 C   H   O  
  64  64 128
Selective dynamics
Cartesian
  0.3867609472427125  0.4385516873903963  5.7119089265005911   T   T   T
  7.0270948798362447  0.4385516873903963  5.7119089265005911   T   T   T
  0.3867609472427125  8.2647989342855297  5.7119089265005911   T   T   T
  7.0270948798362447  8.2647989342855297  5.7119089265005911   T   T   T
  0.3867609472427125  0.4385516873903963 11.9339826989050621   T   T   T
  7.0270948798362447  0.4385516873903963 11.9339826989050621   T   T   T
  0.3867609472427125  8.2647989342855297 11.9339826989050621   T   T   T
  7.0270948798362447  8.2647989342855297 11.9339826989050621   T   T   T
  6.2535731372115508  7.3876954093758007  0.5101648709086193   T   T   T
 12.8939070698050813  7.3876954093758007  0.5101648709086193   T   T   T
  6.2535731372115508 15.2139426562709410  0.5101648709086193   T   T   T
 12.8939070698050813 15.2139426562709410  0.5101648709086193   T   T   T
  6.2535731372115508  7.3876954093758007  6.7322386433130887   T   T   T
 12.8939070698050813  7.3876954093758007  6.7322386433130887   T   T   T
  6.2535731372115508 15.2139426562709410  6.7322386433130887   T   T   T
 12.8939070698050813 15.2139426562709410  6.7322386433130887   T   T   T
  2.9334061709147812  0.4385516873903963  2.6008720402983605   T   T   T
  9.5737401035082943  0.4385516873903963  2.6008720402983605   T   T   T
  2.9334061709147812  8.2647989342855297  2.6008720402983605   T   T   T
  9.5737401035082943  8.2647989342855297  2.6008720402983605   T   T   T
  2.9334061709147812  0.4385516873903963  8.8229458127028124   T   T   T
  9.5737401035082943  0.4385516873903963  8.8229458127028124   T   T   T
  2.9334061709147812  8.2647989342855297  8.8229458127028124   T   T   T
  9.5737401035082943  8.2647989342855297  8.8229458127028124   T   T   T
  3.7069279135394777  3.4745717859282310  5.7119089265005911   T   T   T
 10.3472618461330015  3.4745717859282310  5.7119089265005911   T   T   T
  3.7069279135394777 11.3008190328233589  5.7119089265005911   T   T   T
 10.3472618461330015 11.3008190328233589  5.7119089265005911   T   T   T
  3.7069279135394777  3.4745717859282310 11.9339826989050621   T   T   T
 10.3472618461330015  3.4745717859282310 11.9339826989050621   T   T   T
  3.7069279135394777 11.3008190328233589 11.9339826989050621   T   T   T
 10.3472618461330015 11.3008190328233589 11.9339826989050621   T   T   T
  6.2535731372115508  3.4745717859282310  2.6008720402983605   T   T   T
 12.8939070698050813  3.4745717859282310  2.6008720402983605   T   T   T
  6.2535731372115508 11.3008190328233589  2.6008720402983605   T   T   T
 12.8939070698050813 11.3008190328233589  2.6008720402983605   T   T   T
  6.2535731372115508  3.4745717859282310  8.8229458127028124   T   T   T
 12.8939070698050813  3.4745717859282310  8.8229458127028124   T   T   T
  6.2535731372115508 11.3008190328233589  8.8229458127028124   T   T   T
 12.8939070698050813 11.3008190328233589  8.8229458127028124   T   T   T
  3.7069279135394777  7.3876954093758007  3.6212017571108546   T   T   T
 10.3472618461330015  7.3876954093758007  3.6212017571108546   T   T   T
  3.7069279135394777 15.2139426562709410  3.6212017571108546   T   T   T
 10.3472618461330015 15.2139426562709410  3.6212017571108546   T   T   T
  3.7069279135394777  7.3876954093758007  9.8432755295153083   T   T   T
 10.3472618461330015  7.3876954093758007  9.8432755295153083   T   T   T
  3.7069279135394777 15.2139426562709410  9.8432755295153083   T   T   T
 10.3472618461330015 15.2139426562709410  9.8432755295153083   T   T   T
  2.9334061709147812  4.3516753108379609  0.5101648709086193   T   T   T
  9.5737401035082943  4.3516753108379609  0.5101648709086193   T   T   T
  2.9334061709147812 12.1779225577331207  0.5101648709086193   T   T   T
  9.5737401035082943 12.1779225577331207  0.5101648709086193   T   T   T
  2.9334061709147812  4.3516753108379609  6.7322386433130887   T   T   T
  9.5737401035082943  4.3516753108379609  6.7322386433130887   T   T   T
  2.9334061709147812 12.1779225577331207  6.7322386433130887   T   T   T
  9.5737401035082943 12.1779225577331207  6.7322386433130887   T   T   T
  0.3867609472427125  4.3516753108379609  3.6212017571108546   T   T   T
  7.0270948798362447  4.3516753108379609  3.6212017571108546   T   T   T
  0.3867609472427125 12.1779225577331207  3.6212017571108546   T   T   T
  7.0270948798362447 12.1779225577331207  3.6212017571108546   T   T   T
  0.3867609472427125  4.3516753108379609  9.8432755295153083   T   T   T
  7.0270948798362447  4.3516753108379609  9.8432755295153083   T   T   T
  0.3867609472427125 12.1779225577331207  9.8432755295153083   T   T   T
  7.0270948798362447 12.1779225577331207  9.8432755295153083   T   T   T
  0.6433013030040929  2.3151496250848749  5.2918312721341172   T   T   T
  7.2836352355976191  2.3151496250848749  5.2918312721341172   T   T   T
  0.6433013030040932 10.1413968719799996  5.2918312721341172   T   T   T
  7.2836352355976191 10.1413968719799996  5.2918312721341172   T   T   T
  0.6433013030040929  2.3151496250848749 11.5139050445385944   T   T   T
  7.2836352355976191  2.3151496250848749 11.5139050445385944   T   T   T
  0.6433013030040929 10.1413968719799996 11.5139050445385944   T   T   T
  7.2836352355976191 10.1413968719799996 11.5139050445385944   T   T   T
  5.9970327814501676  5.5110974716813255  0.9302425252750942   T   T   T
 12.6373667140436936  5.5110974716813255  0.9302425252750942   T   T   T
  5.9970327814501676 13.3373447185764604  0.9302425252750942   T   T   T
 12.6373667140436936 13.3373447185764604  0.9302425252750942   T   T   T
  5.9970327814501676  5.5110974716813255  7.1523162976795609   T   T   T
 12.6373667140436936  5.5110974716813255  7.1523162976795609   T   T   T
  5.9970327814501676 13.3373447185764604  7.1523162976795609   T   T   T
 12.6373667140436936 13.3373447185764604  7.1523162976795609   T   T   T
  2.6768658151534011  2.3151496250848749  2.1807943859318826   T   T   T
  9.3171997477469137  2.3151496250848749  2.1807943859318826   T   T   T
  2.6768658151534011 10.1413968719799996  2.1807943859318826   T   T   T
  9.3171997477469137 10.1413968719799996  2.1807943859318826   T   T   T
  2.6768658151534011  2.3151496250848744  8.4028681583363412   T   T   T
  9.3171997477469137  2.3151496250848744  8.4028681583363412   T   T   T
  2.6768658151534011 10.1413968719799996  8.4028681583363412   T   T   T
  9.3171997477469137 10.1413968719799996  8.4028681583363412   T   T   T
  3.9634682693008587  1.5979738482337495  5.2918312721341172   T   T   T
 10.6038022018943892  1.5979738482337495  5.2918312721341172   T   T   T
  3.9634682693008587  9.4242210951288907  5.2918312721341172   T   T   T
 10.6038022018943892  9.4242210951288907  5.2918312721341172   T   T   T
  3.9634682693008587  1.5979738482337495 11.5139050445385944   T   T   T
 10.6038022018943892  1.5979738482337495 11.5139050445385944   T   T   T
  3.9634682693008587  9.4242210951288907 11.5139050445385944   T   T   T
 10.6038022018943892  9.4242210951288907 11.5139050445385944   T   T   T
  5.9970327814501676  1.5979738482337495  2.1807943859318826   T   T   T
 12.6373667140436936  1.5979738482337495  2.1807943859318826   T   T   T
  5.9970327814501676  9.4242210951288907  2.1807943859318826   T   T   T
 12.6373667140436936  9.4242210951288907  2.1807943859318826   T   T   T
  5.9970327814501676  1.5979738482337495  8.4028681583363412   T   T   T
 12.6373667140436936  1.5979738482337495  8.4028681583363412   T   T   T
  5.9970327814501676  9.4242210951288907  8.4028681583363412   T   T   T
 12.6373667140436936  9.4242210951288907  8.4028681583363412   T   T   T
  3.9634682693008587  5.5110974716813255  4.0412794114773209   T   T   T
 10.6038022018943892  5.5110974716813255  4.0412794114773209   T   T   T
  3.9634682693008587 13.3373447185764604  4.0412794114773209   T   T   T
 10.6038022018943892 13.3373447185764604  4.0412794114773209   T   T   T
  3.9634682693008587  5.5110974716813255 10.2633531838817973   T   T   T
 10.6038022018943892  5.5110974716813255 10.2633531838817973   T   T   T
  3.9634682693008587 13.3373447185764604 10.2633531838817973   T   T   T
 10.6038022018943892 13.3373447185764604 10.2633531838817973   T   T   T
  2.6768658151534011  6.2282732485324441  0.9302425252750942   T   T   T
  9.3171997477469137  6.2282732485324441  0.9302425252750942   T   T   T
  2.6768658151534011 14.0545204954275871  0.9302425252750942   T   T   T
  9.3171997477469137 14.0545204954275871  0.9302425252750942   T   T   T
  2.6768658151534011  6.2282732485324441  7.1523162976795609   T   T   T
  9.3171997477469137  6.2282732485324441  7.1523162976795609   T   T   T
  2.6768658151534011 14.0545204954275871  7.1523162976795609   T   T   T
  9.3171997477469137 14.0545204954275871  7.1523162976795609   T   T   T
  0.6433013030040929  6.2282732485324441  4.0412794114773209   T   T   T
  7.2836352355976191  6.2282732485324441  4.0412794114773209   T   T   T
  0.6433013030040929 14.0545204954275871  4.0412794114773209   T   T   T
  7.2836352355976191 14.0545204954275871  4.0412794114773209   T   T   T
  0.6433013030040929  6.2282732485324441 10.2633531838817973   T   T   T
  7.2836352355976191  6.2282732485324441 10.2633531838817973   T   T   T
  0.6433013030040929 14.0545204954275871 10.2633531838817973   T   T   T
  7.2836352355976191 14.0545204954275871 10.2633531838817973   T   T   T
  1.0641495930249962  7.7948688014113579  4.8070738500919159   T   T   T
  7.7044835256185236  7.7948688014113579  4.8070738500919159   T   T   T
  1.0641495930249962 15.6211160483064972  4.8070738500919159   T   T   T
  7.7044835256185236 15.6211160483064972  4.8070738500919159   T   T   T
  1.0641495930249962  7.7948688014113579 11.0291476224963834   T   T   T
  7.7044835256185236  7.7948688014113579 11.0291476224963834   T   T   T
  1.0641495930249962 15.6211160483064972 11.0291476224963834   T   T   T
  7.7044835256185236 15.6211160483064972 11.0291476224963834   T   T   T
  0.1977094125034077  1.7270004659518663  5.9629498209123017   T   T   T
  6.8380433450969376  1.7270004659518663  5.9629498209123017   T   T   T
  0.1977094125034077  9.5532477128469999  5.9629498209123017   T   T   T
  6.8380433450969376  9.5532477128469999  5.9629498209123017   T   T   T
  0.1977094125034077  1.7270004659518663 12.1850235933167586   T   T   T
  6.8380433450969376  1.7270004659518663 12.1850235933167586   T   T   T
  0.1977094125034077  9.5532477128469999 12.1850235933167586   T   T   T
  6.8380433450969376  9.5532477128469999 12.1850235933167586   T   T   T
  5.5761844914292586  0.0313782953548413  1.4149999473172925   T   T   T
 12.2165184240227944  0.0313782953548413  1.4149999473172925   T   T   T
  5.5761844914292586  7.8576255422499894  1.4149999473172925   T   T   T
 12.2165184240227944  7.8576255422499894  1.4149999473172925   T   T   T
  5.5761844914292586  0.0313782953548413  7.6370737197217666   T   T   T
 12.2165184240227944  0.0313782953548413  7.6370737197217666   T   T   T
  5.5761844914292586  7.8576255422499894  7.6370737197217666   T   T   T
 12.2165184240227944  7.8576255422499894  7.6370737197217666   T   T   T
  6.4426246719508544  6.0992466308143278  0.2591239764969058   T   T   T
 13.0829586045443804  6.0992466308143278  0.2591239764969058   T   T   T
  6.4426246719508544 13.9254938777094672  0.2591239764969058   T   T   T
 13.0829586045443804 13.9254938777094672  0.2591239764969058   T   T   T
  6.4426246719508544  6.0992466308143278  6.4811977489013799   T   T   T
 13.0829586045443804  6.0992466308143278  6.4811977489013799   T   T   T
  6.4426246719508544 13.9254938777094672  6.4811977489013799   T   T   T
 13.0829586045443804 13.9254938777094672  6.4811977489013799   T   T   T
  2.2560175251324965  7.7948688014113579  1.6960369638896908   T   T   T
  8.8963514577260128  7.7948688014113579  1.6960369638896908   T   T   T
  2.2560175251324965 15.6211160483064972  1.6960369638896908   T   T   T
  8.8963514577260128 15.6211160483064972  1.6960369638896908   T   T   T
  2.2560175251324965  7.7948688014113579  7.9181107362941576   T   T   T
  8.8963514577260128  7.7948688014113579  7.9181107362941576   T   T   T
  2.2560175251324965 15.6211160483064972  7.9181107362941576   T   T   T
  8.8963514577260128 15.6211160483064972  7.9181107362941576   T   T   T
  4.3843165593217552  3.9445019188024135  4.8070738500919159   T   T   T
 11.0246504919152759  3.9445019188024135  4.8070738500919159   T   T   T
  4.3843165593217552 11.7707491656975680  4.8070738500919159   T   T   T
 11.0246504919152759 11.7707491656975680  4.8070738500919159   T   T   T
  4.3843165593217552  3.9445019188024135 11.0291476224963834   T   T   T
 11.0246504919152759  3.9445019188024135 11.0291476224963834   T   T   T
  4.3843165593217552 11.7707491656975680 11.0291476224963834   T   T   T
 11.0246504919152759 11.7707491656975680 11.0291476224963834   T   T   T
  5.5761844914292586  3.9445019188024135  1.6960369638896908   T   T   T
 12.2165184240227944  3.9445019188024135  1.6960369638896908   T   T   T
  5.5761844914292586 11.7707491656975680  1.6960369638896908   T   T   T
 12.2165184240227944 11.7707491656975680  1.6960369638896908   T   T   T
  5.5761844914292586  3.9445019188024135  7.9181107362941576   T   T   T
 12.2165184240227944  3.9445019188024135  7.9181107362941576   T   T   T
  5.5761844914292586 11.7707491656975680  7.9181107362941576   T   T   T
 12.2165184240227944 11.7707491656975680  7.9181107362941576   T   T   T
  4.3843165593217552  0.0313782953548413  4.5260368335195240   T   T   T
 11.0246504919152759  0.0313782953548413  4.5260368335195240   T   T   T
  4.3843165593217552  7.8576255422499894  4.5260368335195240   T   T   T
 11.0246504919152759  7.8576255422499894  4.5260368335195240   T   T   T
  4.3843165593217552  0.0313782953548413 10.7481106059239959   T   T   T
 11.0246504919152759  0.0313782953548413 10.7481106059239959   T   T   T
  4.3843165593217552  7.8576255422499894 10.7481106059239959   T   T   T
 11.0246504919152759  7.8576255422499894 10.7481106059239959   T   T   T
  2.2560175251324965  3.8817451779637886  1.4149999473172925   T   T   T
  8.8963514577260128  3.8817451779637886  1.4149999473172925   T   T   T
  2.2560175251324965 11.7079924248589169  1.4149999473172925   T   T   T
  8.8963514577260128 11.7079924248589169  1.4149999473172925   T   T   T
  2.2560175251324965  3.8817451779637886  7.6370737197217666   T   T   T
  8.8963514577260128  3.8817451779637886  7.6370737197217666   T   T   T
  2.2560175251324965 11.7079924248589169  7.6370737197217666   T   T   T
  8.8963514577260128 11.7079924248589169  7.6370737197217666   T   T   T
  1.0641495930249962  3.8817451779637886  4.5260368335195240   T   T   T
  7.7044835256185236  3.8817451779637886  4.5260368335195240   T   T   T
  1.0641495930249962 11.7079924248589169  4.5260368335195240   T   T   T
  7.7044835256185236 11.7079924248589169  4.5260368335195240   T   T   T
  1.0641495930249962  3.8817451779637886 10.7481106059239959   T   T   T
  7.7044835256185236  3.8817451779637886 10.7481106059239959   T   T   T
  1.0641495930249962 11.7079924248589169 10.7481106059239959   T   T   T
  7.7044835256185236 11.7079924248589169 10.7481106059239959   T   T   T
  3.1224577056540892  1.7270004659518663  2.8519129347100773   T   T   T
  9.7627916382476005  1.7270004659518663  2.8519129347100773   T   T   T
  3.1224577056540892  9.5532477128469999  2.8519129347100773   T   T   T
  9.7627916382476005  9.5532477128469999  2.8519129347100773   T   T   T
  3.1224577056540892  1.7270004659518663  9.0739867071145213   T   T   T
  9.7627916382476005  1.7270004659518663  9.0739867071145213   T   T   T
  3.1224577056540892  9.5532477128469999  9.0739867071145213   T   T   T
  9.7627916382476005  9.5532477128469999  9.0739867071145213   T   T   T
  3.5178763788001715  2.1861230073667555  5.9629498209123017   T   T   T
 10.1582103113936970  2.1861230073667555  5.9629498209123017   T   T   T
  3.5178763788001715 10.0123702542618886  5.9629498209123017   T   T   T
 10.1582103113936970 10.0123702542618886  5.9629498209123017   T   T   T
  3.5178763788001715  2.1861230073667555 12.1850235933167586   T   T   T
 10.1582103113936970  2.1861230073667555 12.1850235933167586   T   T   T
  3.5178763788001715 10.0123702542618886 12.1850235933167586   T   T   T
 10.1582103113936970 10.0123702542618886 12.1850235933167586   T   T   T
  6.4426246719508544  2.1861230073667555  2.8519129347100773   T   T   T
 13.0829586045443804  2.1861230073667555  2.8519129347100773   T   T   T
  6.4426246719508544 10.0123702542618886  2.8519129347100773   T   T   T
 13.0829586045443804 10.0123702542618886  2.8519129347100773   T   T   T
  6.4426246719508544  2.1861230073667555  9.0739867071145213   T   T   T
 13.0829586045443804  2.1861230073667555  9.0739867071145213   T   T   T
  6.4426246719508544 10.0123702542618886  9.0739867071145213   T   T   T
 13.0829586045443804 10.0123702542618886  9.0739867071145213   T   T   T
  3.5178763788001715  6.0992466308143278  3.3701608626991391   T   T   T
 10.1582103113936970  6.0992466308143278  3.3701608626991391   T   T   T
  3.5178763788001715 13.9254938777094672  3.3701608626991391   T   T   T
 10.1582103113936970 13.9254938777094672  3.3701608626991391   T   T   T
  3.5178763788001715  6.0992466308143278  9.5922346351036154   T   T   T
 10.1582103113936970  6.0992466308143278  9.5922346351036154   T   T   T
  3.5178763788001715 13.9254938777094672  9.5922346351036154   T   T   T
 10.1582103113936970 13.9254938777094672  9.5922346351036154   T   T   T
  3.1224577056540892  5.6401240893994418  0.2591239764969058   T   T   T
  9.7627916382476005  5.6401240893994418  0.2591239764969058   T   T   T
  3.1224577056540892 13.4663713362945785  0.2591239764969058   T   T   T
  9.7627916382476005 13.4663713362945785  0.2591239764969058   T   T   T
  3.1224577056540892  5.6401240893994418  6.4811977489013799   T   T   T
  9.7627916382476005  5.6401240893994418  6.4811977489013799   T   T   T
  3.1224577056540892 13.4663713362945785  6.4811977489013799   T   T   T
  9.7627916382476005 13.4663713362945785  6.4811977489013799   T   T   T
  0.1977094125034077  5.6401240893994418  3.3701608626991391   T   T   T
  6.8380433450969376  5.6401240893994418  3.3701608626991391   T   T   T
  0.1977094125034077 13.4663713362945785  3.3701608626991391   T   T   T
  6.8380433450969376 13.4663713362945785  3.3701608626991391   T   T   T
  0.1977094125034077  5.6401240893994418  9.5922346351036154   T   T   T
  6.8380433450969376  5.6401240893994418  9.5922346351036154   T   T   T
  0.1977094125034077 13.4663713362945785  9.5922346351036154   T   T   T
  6.8380433450969376 13.4663713362945785  9.5922346351036154   T   T   T
