super cell
        1.0000000000
  16.450609254086746   0.000000000000000   0.232928479304809
   0.000000000000000  11.974016285211302   0.000000000000000
  -9.790909650677108   0.000000000000000  14.221717148562067
  160  128
 Direct
   0.042607811424811   0.009218650289350   0.165531379582233
   0.542607811424811   0.009218650289350   0.165531379582233
   0.042607811424811   0.509218650289350   0.165531379582233
   0.542607811424811   0.509218650289350   0.165531379582233
   0.042607811424811   0.009218650289350   0.665531379582233
   0.542607811424811   0.009218650289350   0.665531379582233
   0.042607811424811   0.509218650289350   0.665531379582233
   0.542607811424811   0.509218650289350   0.665531379582233
   0.457392188498077   0.490781349710653   0.334468620768896
   0.957392188498077   0.490781349710653   0.334468620768896
   0.457392188498077   0.990781349710653   0.334468620768896
   0.957392188498077   0.990781349710653   0.334468620768896
   0.457392188498077   0.490781349710653   0.834468620768896
   0.957392188498077   0.490781349710653   0.834468620768896
   0.457392188498077   0.990781349710653   0.834468620768896
   0.957392188498077   0.990781349710653   0.834468620768896
   0.207392207205246   0.259218647207083   0.334468651845271
   0.707392207205246   0.259218647207083   0.334468651845271
   0.207392207205246   0.759218647207083   0.334468651845271
   0.707392207205246   0.759218647207083   0.334468651845271
   0.207392207205246   0.259218647207083   0.834468651845271
   0.707392207205246   0.259218647207083   0.834468651845271
   0.207392207205246   0.759218647207083   0.834468651845271
   0.707392207205246   0.759218647207083   0.834468651845271
   0.292607778784929   0.240781347492822   0.165531353940053
   0.792607778784929   0.240781347492822   0.165531353940053
   0.292607778784929   0.740781347492822   0.165531353940053
   0.792607778784929   0.740781347492822   0.165531353940053
   0.292607778784929   0.240781347492822   0.665531353940053
   0.792607778784929   0.240781347492822   0.665531353940053
   0.292607778784929   0.740781347492822   0.665531353940053
   0.792607778784929   0.740781347492822   0.665531353940053
   0.056802881153348   0.081229897546294   0.111585303452086
   0.556802881153348   0.081229897546294   0.111585303452086
   0.056802881153348   0.581229897546294   0.111585303452086
   0.556802881153348   0.581229897546294   0.111585303452086
   0.056802881153348   0.081229897546294   0.611585303452086
   0.556802881153348   0.081229897546294   0.611585303452086
   0.056802881153348   0.581229897546294   0.611585303452086
   0.556802881153348   0.581229897546294   0.611585303452086
   0.443197117723912   0.418770103655781   0.388414696730545
   0.943197117723912   0.418770103655781   0.388414696730545
   0.443197117723912   0.918770103655781   0.388414696730545
   0.943197117723912   0.918770103655781   0.388414696730545
   0.443197117723912   0.418770103655781   0.888414696730545
   0.943197117723912   0.418770103655781   0.888414696730545
   0.443197117723912   0.918770103655781   0.888414696730545
   0.943197117723912   0.918770103655781   0.888414696730545
   0.193197114762665   0.331229907856788   0.388414730850956
   0.693197114762665   0.331229907856788   0.388414730850956
   0.193197114762665   0.831229907856788   0.388414730850956
   0.693197114762665   0.831229907856788   0.388414730850956
   0.193197114762665   0.331229907856788   0.888414730850956
   0.693197114762665   0.331229907856788   0.888414730850956
   0.193197114762665   0.831229907856788   0.888414730850956
   0.693197114762665   0.831229907856788   0.888414730850956
   0.306802868955554   0.168770086220860   0.111585274375700
   0.806802868955554   0.168770086220860   0.111585274375700
   0.306802868955554   0.668770086220860   0.111585274375700
   0.806802868955554   0.668770086220860   0.111585274375700
   0.306802868955554   0.168770086220860   0.611585274375700
   0.806802868955554   0.168770086220860   0.611585274375700
   0.306802868955554   0.668770086220860   0.611585274375700
   0.806802868955554   0.668770086220860   0.611585274375700
   0.023936802036037   0.052874409097181   0.018480937099054
   0.523936802036037   0.052874409097181   0.018480937099054
   0.023936802036037   0.552874409097181   0.018480937099054
   0.523936802036037   0.552874409097181   0.018480937099054
   0.023936802036037   0.052874409097181   0.518480937099054
   0.523936802036037   0.052874409097181   0.518480937099054
   0.023936802036037   0.552874409097181   0.518480937099054
   0.523936802036037   0.552874409097181   0.518480937099054
   0.476063196630694   0.447125591621319   0.481519062545440
   0.976063196630694   0.447125591621319   0.481519062545440
   0.476063196630694   0.947125591621319   0.481519062545440
   0.976063196630694   0.947125591621319   0.481519062545440
   0.476063196630694   0.447125591621319   0.981519062545440
   0.976063196630694   0.447125591621319   0.981519062545440
   0.476063196630694   0.947125591621319   0.981519062545440
   0.976063196630694   0.947125591621319   0.981519062545440
   0.226063263889340   0.302874462437355   0.481519128634519
   0.726063263889340   0.302874462437355   0.481519128634519
   0.226063263889340   0.802874462437354   0.481519128634519
   0.726063263889340   0.802874462437354   0.481519128634519
   0.226063263889340   0.302874462437355   0.981519128634519
   0.726063263889340   0.302874462437355   0.981519128634519
   0.226063263889340   0.802874462437354   0.981519128634519
   0.726063263889340   0.802874462437354   0.981519128634519
   0.273936721520336   0.197125531938295   0.018480877829586
   0.773936721520336   0.197125531938295   0.018480877829586
   0.273936721520336   0.697125531938295   0.018480877829586
   0.773936721520336   0.697125531938295   0.018480877829586
   0.273936721520336   0.197125531938295   0.518480877829586
   0.773936721520336   0.197125531938295   0.518480877829586
   0.273936721520336   0.697125531938295   0.518480877829586
   0.773936721520336   0.697125531938295   0.518480877829586
   0.036865367866280   0.125420551669920   0.460833159165417
   0.536865367866280   0.125420551669920   0.460833159165417
   0.036865367866280   0.625420551669920   0.460833159165417
   0.536865367866280   0.625420551669920   0.460833159165417
   0.036865367866280   0.125420551669920   0.960833159165417
   0.536865367866280   0.125420551669920   0.960833159165417
   0.036865367866280   0.625420551669920   0.960833159165417
   0.536865367866280   0.625420551669920   0.960833159165417
   0.463134630095276   0.374579448905719   0.039166840647685
   0.963134630095276   0.374579448905719   0.039166840647685
   0.463134630095276   0.874579448905719   0.039166840647685
   0.963134630095276   0.874579448905719   0.039166840647685
   0.463134630095276   0.374579448905719   0.539166840647685
   0.963134630095276   0.374579448905719   0.539166840647685
   0.463134630095276   0.874579448905719   0.539166840647685
   0.963134630095276   0.874579448905719   0.539166840647685
   0.213134651725213   0.375420564398227   0.039166922152348
   0.713134651725213   0.375420564398227   0.039166922152348
   0.213134651725213   0.875420564398227   0.039166922152348
   0.713134651725213   0.875420564398227   0.039166922152348
   0.213134651725213   0.375420564398227   0.539166922152348
   0.713134651725213   0.375420564398227   0.539166922152348
   0.213134651725213   0.875420564398227   0.539166922152348
   0.713134651725213   0.875420564398227   0.539166922152348
   0.286865336241625   0.124579431949022   0.460833085540194
   0.786865336241625   0.124579431949022   0.460833085540194
   0.286865336241625   0.624579431949022   0.460833085540194
   0.786865336241625   0.624579431949022   0.460833085540194
   0.286865336241625   0.124579431949022   0.960833085540194
   0.786865336241625   0.124579431949022   0.960833085540194
   0.286865336241625   0.624579431949022   0.960833085540194
   0.786865336241625   0.624579431949022   0.960833085540194
   0.004695829675963   0.095065216389637   0.370976181655506
   0.504695829675963   0.095065216389637   0.370976181655506
   0.004695829675963   0.595065216389637   0.370976181655506
   0.504695829675963   0.595065216389637   0.370976181655506
   0.004695829675963   0.095065216389637   0.870976181655506
   0.504695829675963   0.095065216389637   0.870976181655506
   0.004695829675963   0.595065216389637   0.870976181655506
   0.504695829675963   0.595065216389637   0.870976181655506
   0.495304170324037   0.404934784338971   0.129023818687803
   0.995304170324037   0.404934784338971   0.129023818687803
   0.495304170324037   0.904934784338971   0.129023818687803
   0.995304170324037   0.904934784338971   0.129023818687803
   0.495304170324037   0.404934784338971   0.629023818687803
   0.995304170324037   0.404934784338971   0.629023818687803
   0.495304170324037   0.904934784338971   0.629023818687803
   0.995304170324037   0.904934784338971   0.629023818687803
   0.245304145564408   0.345065193751500   0.129023875534050
   0.745304145564408   0.345065193751500   0.129023875534050
   0.245304145564408   0.845065193751500   0.129023875534050
   0.745304145564408   0.845065193751500   0.129023875534050
   0.245304145564408   0.345065193751500   0.629023875534050
   0.745304145564408   0.345065193751500   0.629023875534050
   0.245304145564408   0.845065193751500   0.629023875534050
   0.745304145564408   0.845065193751500   0.629023875534050
   0.254695842746837   0.154934803651011   0.370976132010575
   0.754695842746837   0.154934803651011   0.370976132010575
   0.254695842746837   0.654934803651011   0.370976132010575
   0.754695842746837   0.654934803651011   0.370976132010575
   0.254695842746837   0.154934803651011   0.870976132010575
   0.754695842746837   0.154934803651011   0.870976132010575
   0.254695842746837   0.654934803651011   0.870976132010575
   0.754695842746837   0.654934803651011   0.870976132010575
   0.067651984177752   0.032592662602543   0.236089426337506
   0.567651984177752   0.032592662602543   0.236089426337506
   0.067651984177752   0.532592662602543   0.236089426337506
   0.567651984177752   0.532592662602543   0.236089426337506
   0.067651984177752   0.032592662602543   0.736089426337506
   0.567651984177752   0.032592662602543   0.736089426337506
   0.067651984177752   0.532592662602543   0.736089426337506
   0.567651984177752   0.532592662602543   0.736089426337506
   0.432348014078409   0.467407337374592   0.263910573491204
   0.932348014078409   0.467407337374592   0.263910573491204
   0.432348014078409   0.967407337374592   0.263910573491204
   0.932348014078409   0.967407337374592   0.263910573491204
   0.432348014078409   0.467407337374592   0.763910573491204
   0.932348014078409   0.467407337374592   0.763910573491204
   0.432348014078409   0.967407337374592   0.763910573491204
   0.932348014078409   0.967407337374592   0.763910573491204
   0.182348066032459   0.282592674138730   0.263910669976981
   0.682348066032459   0.282592674138730   0.263910669976981
   0.182348066032459   0.782592674138730   0.263910669976981
   0.682348066032459   0.782592674138730   0.263910669976981
   0.182348066032459   0.282592674138730   0.763910669976981
   0.682348066032459   0.282592674138730   0.763910669976981
   0.182348066032459   0.782592674138730   0.763910669976981
   0.682348066032459   0.782592674138730   0.763910669976981
   0.317651920460230   0.217407322887673   0.236089337281796
   0.817651920460230   0.217407322887673   0.236089337281796
   0.317651920460230   0.717407322887673   0.236089337281796
   0.817651920460230   0.717407322887673   0.236089337281796
   0.317651920460230   0.217407322887673   0.736089337281796
   0.817651920460230   0.217407322887673   0.736089337281796
   0.317651920460230   0.717407322887673   0.736089337281796
   0.817651920460230   0.717407322887673   0.736089337281796
   0.092673538995921   0.160978203684921   0.139191692866763
   0.592673538995921   0.160978203684921   0.139191692866763
   0.092673538995921   0.660978203684921   0.139191692866763
   0.592673538995921   0.660978203684921   0.139191692866763
   0.092673538995921   0.160978203684921   0.639191692866763
   0.592673538995921   0.160978203684921   0.639191692866763
   0.092673538995921   0.660978203684921   0.639191692866763
   0.592673538995921   0.660978203684921   0.639191692866763
   0.407326457827661   0.339021798944463   0.360808307675250
   0.907326457827661   0.339021798944463   0.360808307675250
   0.407326457827661   0.839021798944463   0.360808307675250
   0.907326457827661   0.839021798944463   0.360808307675250
   0.407326457827661   0.339021798944463   0.860808307675250
   0.907326457827661   0.339021798944463   0.860808307675250
   0.407326457827661   0.839021798944463   0.860808307675250
   0.907326457827661   0.839021798944463   0.860808307675250
   0.157326465501878   0.410978219795732   0.360808317375295
   0.657326465501878   0.410978219795732   0.360808317375295
   0.157326465501878   0.910978219795732   0.360808317375295
   0.657326465501878   0.910978219795732   0.360808317375295
   0.157326465501878   0.410978219795732   0.860808317375295
   0.657326465501878   0.410978219795732   0.860808317375295
   0.157326465501878   0.910978219795732   0.860808317375295
   0.657326465501878   0.910978219795732   0.860808317375295
   0.342673519972245   0.089021778142771   0.139191689428453
   0.842673519972245   0.089021778142771   0.139191689428453
   0.342673519972245   0.589021778142771   0.139191689428453
   0.842673519972245   0.589021778142771   0.139191689428453
   0.342673519972245   0.089021778142771   0.639191689428453
   0.842673519972245   0.089021778142771   0.639191689428453
   0.342673519972245   0.589021778142771   0.639191689428453
   0.842673519972245   0.589021778142771   0.639191689428453
   0.072706541460257   0.205031211594805   0.488745146555054
   0.572706541460257   0.205031211594805   0.488745146555054
   0.072706541460257   0.705031211594805   0.488745146555054
   0.572706541460257   0.705031211594805   0.488745146555054
   0.072706541460257   0.205031211594805   0.988745146555054
   0.572706541460257   0.205031211594805   0.988745146555054
   0.072706541460257   0.705031211594805   0.988745146555054
   0.572706541460257   0.705031211594805   0.988745146555054
   0.427293454247916   0.294968790689412   0.011254853444950
   0.927293454247916   0.294968790689412   0.011254853444950
   0.427293454247916   0.794968790689412   0.011254853444950
   0.927293454247916   0.794968790689412   0.011254853444950
   0.427293454247916   0.294968790689412   0.511254853444950
   0.927293454247916   0.294968790689412   0.511254853444950
   0.427293454247916   0.794968790689412   0.511254853444950
   0.927293454247916   0.794968790689412   0.511254853444950
   0.177293473631081   0.455031172184812   0.011254870695844
   0.677293473631081   0.455031172184812   0.011254870695844
   0.177293473631081   0.955031172184812   0.011254870695844
   0.677293473631081   0.955031172184812   0.011254870695844
   0.177293473631081   0.455031172184812   0.511254870695844
   0.677293473631081   0.455031172184812   0.511254870695844
   0.177293473631081   0.955031172184812   0.511254870695844
   0.677293473631081   0.955031172184812   0.511254870695844
   0.322706514313883   0.044968823309541   0.488745134465787
   0.822706514313883   0.044968823309541   0.488745134465787
   0.322706514313883   0.544968823309541   0.488745134465787
   0.822706514313883   0.544968823309541   0.488745134465787
   0.322706514313883   0.044968823309541   0.988745134465787
   0.822706514313883   0.044968823309541   0.988745134465787
   0.322706514313883   0.544968823309541   0.988745134465787
   0.822706514313883   0.544968823309541   0.988745134465787
   0.015787810436736   0.151003277305610   0.328176057150042
   0.515787810436736   0.151003277305610   0.328176057150042
   0.015787810436736   0.651003277305610   0.328176057150042
   0.515787810436736   0.651003277305610   0.328176057150042
   0.015787810436736   0.151003277305610   0.828176057150042
   0.515787810436736   0.151003277305610   0.828176057150042
   0.015787810436736   0.651003277305610   0.828176057150042
   0.515787810436736   0.651003277305610   0.828176057150042
   0.484212187574639   0.348996724326077   0.171823943088643
   0.984212187574639   0.348996724326077   0.171823943088643
   0.484212187574639   0.848996724326077   0.171823943088643
   0.984212187574639   0.848996724326077   0.171823943088643
   0.484212187574639   0.348996724326077   0.671823943088643
   0.984212187574639   0.348996724326077   0.671823943088643
   0.484212187574639   0.848996724326077   0.671823943088643
   0.984212187574639   0.848996724326077   0.671823943088643
   0.234212121468529   0.401003303134204   0.171823983623294
   0.734212121468529   0.401003303134204   0.171823983623294
   0.234212121468529   0.901003303134204   0.171823983623294
   0.734212121468529   0.901003303134204   0.171823983623294
   0.234212121468529   0.401003303134204   0.671823983623294
   0.734212121468529   0.401003303134204   0.671823983623294
   0.234212121468529   0.901003303134204   0.671823983623294
   0.734212121468529   0.901003303134204   0.671823983623294
   0.265787866683068   0.098996695877381   0.328176022533949
   0.765787866683068   0.098996695877381   0.328176022533949
   0.265787866683068   0.598996695877381   0.328176022533949
   0.765787866683068   0.598996695877381   0.328176022533949
   0.265787866683068   0.098996695877381   0.828176022533949
   0.765787866683068   0.098996695877381   0.828176022533949
   0.265787866683068   0.598996695877381   0.828176022533949
   0.765787866683068   0.598996695877381   0.828176022533949
