 C  H 
 1.0000000000000000
    25.0000000000000000    0.0000000000000000    0.0000000000000000
     0.0000000000000000   25.0000000000000000    0.0000000000000000
     0.0000000000000000    0.0000000000000000   25.0000000000000000
 C   H  
  10  16
Cartesian
 12.5003299999999982 12.5000600000000013 10.7232899999999987
 12.4998100000000001 12.4999900000000004 14.2770699999999984
 12.6652999999999984 13.7479399999999998 11.6099099999999993
 11.2519700000000000 12.6653200000000012 13.3903999999999996
 12.3348399999999998 11.2521200000000015 11.6097699999999993
 13.7477999999999998 12.3346300000000006 13.3906099999999988
 11.4205299999999994 13.9108700000000010 12.5013399999999990
 11.0891799999999989 11.4206900000000005 12.4986499999999996
 13.5793800000000005 11.0890800000000009 12.5015000000000001
 13.9107500000000002 13.5793800000000005 12.4991299999999992
 11.6224999999999987 12.6156900000000007 10.0686800000000005
 12.3840100000000000 11.6219400000000022 14.9312599999999982
 13.3786099999999983 12.3843700000000005 10.0692199999999996
 12.6156399999999991 13.3780800000000006 14.9313199999999995
 12.7830799999999982 14.6389899999999997 10.9746600000000001
 10.3607699999999987 12.7830000000000013 14.0255599999999987
 12.2169899999999991 10.3611000000000004 10.9744199999999985
 14.6389199999999988 12.2168200000000020 14.0258199999999995
 10.5250999999999983 14.0517400000000006 11.8764499999999984
 10.9480000000000004 10.5251100000000015 13.1233100000000000
 14.4750200000000007 10.9479600000000019 11.8768600000000006
 14.0516499999999986 14.4749300000000005 13.1239099999999986
 11.5221199999999993 14.8100300000000011 13.1287400000000005
 10.1901299999999999 11.5224100000000007 11.8711699999999993
 13.4777400000000007 10.1899700000000006 13.1289300000000004
 14.8098700000000001 13.4780600000000010 11.8716499999999989
