 C  O  N  H 
        1.0000000000
  10.804334372003490  -0.000016145803465  -0.088450072897977
  -0.000027323519517  18.306484454326295  -0.000002692916245
  -3.989641599396241   0.000002569360983  20.871937436416516
   72   72   72  216
 Direct
   0.111668167435602   0.028947552788345   0.086013791178932
   0.445001500768936   0.028947552788345   0.086013791178932
   0.778334834102269   0.028947552788345   0.086013791178932
   0.111668167435602   0.528947552788345   0.086013791178932
   0.445001500768936   0.528947552788345   0.086013791178932
   0.778334834102269   0.528947552788345   0.086013791178932
   0.111668167435602   0.028947552788345   0.419347124512266
   0.445001500768936   0.028947552788345   0.419347124512266
   0.778334834102269   0.028947552788345   0.419347124512266
   0.111668167435602   0.528947552788345   0.419347124512266
   0.445001500768936   0.528947552788345   0.419347124512266
   0.778334834102269   0.528947552788345   0.419347124512266
   0.111668167435602   0.028947552788345   0.752680457845599
   0.445001500768936   0.028947552788345   0.752680457845599
   0.778334834102269   0.028947552788345   0.752680457845599
   0.111668167435602   0.528947552788345   0.752680457845599
   0.445001500768936   0.528947552788345   0.752680457845599
   0.778334834102269   0.528947552788345   0.752680457845599
   0.221666620169274   0.471047490763041   0.247321149523068
   0.554999953502607   0.471047490763041   0.247321149523068
   0.888333286835941   0.471047490763041   0.247321149523068
   0.221666620169274   0.971047490763041   0.247321149523068
   0.554999953502607   0.971047490763041   0.247321149523068
   0.888333286835941   0.971047490763041   0.247321149523068
   0.221666620169274   0.471047490763041   0.580654482856401
   0.554999953502607   0.471047490763041   0.580654482856401
   0.888333286835941   0.471047490763041   0.580654482856401
   0.221666620169274   0.971047490763041   0.580654482856401
   0.554999953502607   0.971047490763041   0.580654482856401
   0.888333286835941   0.971047490763041   0.580654482856401
   0.221666620169274   0.471047490763041   0.913987816189735
   0.554999953502607   0.471047490763041   0.913987816189735
   0.888333286835941   0.471047490763041   0.913987816189735
   0.221666620169274   0.971047490763041   0.913987816189735
   0.554999953502607   0.971047490763041   0.913987816189735
   0.888333286835941   0.971047490763041   0.913987816189735
   0.055000290786388   0.278947386130629   0.080654603041969
   0.388333624119721   0.278947386130629   0.080654603041969
   0.721666957453054   0.278947386130629   0.080654603041969
   0.055000290786388   0.778947386130629   0.080654603041969
   0.388333624119721   0.778947386130629   0.080654603041969
   0.721666957453054   0.778947386130629   0.080654603041969
   0.055000290786388   0.278947386130629   0.413987936375302
   0.388333624119721   0.278947386130629   0.413987936375302
   0.721666957453054   0.278947386130629   0.413987936375302
   0.055000290786388   0.778947386130629   0.413987936375302
   0.388333624119721   0.778947386130629   0.413987936375302
   0.721666957453054   0.778947386130629   0.413987936375302
   0.055000290786388   0.278947386130629   0.747321269708636
   0.388333624119721   0.278947386130629   0.747321269708636
   0.721666957453054   0.278947386130629   0.747321269708636
   0.055000290786388   0.778947386130629   0.747321269708636
   0.388333624119721   0.778947386130629   0.747321269708636
   0.721666957453054   0.778947386130629   0.747321269708636
   0.278334530905460   0.221047411620882   0.252680375981647
   0.611667864238793   0.221047411620882   0.252680375981647
   0.945001197572126   0.221047411620882   0.252680375981647
   0.278334530905460   0.721047411620882   0.252680375981647
   0.611667864238793   0.721047411620882   0.252680375981647
   0.945001197572126   0.721047411620882   0.252680375981647
   0.278334530905460   0.221047411620882   0.586013709314981
   0.611667864238793   0.221047411620882   0.586013709314981
   0.945001197572126   0.221047411620882   0.586013709314981
   0.278334530905460   0.721047411620882   0.586013709314981
   0.611667864238793   0.721047411620882   0.586013709314981
   0.945001197572126   0.721047411620882   0.586013709314981
   0.278334530905460   0.221047411620882   0.919347042648314
   0.611667864238793   0.221047411620882   0.919347042648314
   0.945001197572126   0.221047411620882   0.919347042648314
   0.278334530905460   0.721047411620882   0.919347042648314
   0.611667864238793   0.721047411620882   0.919347042648314
   0.945001197572126   0.721047411620882   0.919347042648314
   0.160212537414523   0.466948383535620   0.083765834651564
   0.493545870747856   0.466948383535620   0.083765834651564
   0.826879204081189   0.466948383535620   0.083765834651564
   0.160212537414523   0.966948383535620   0.083765834651564
   0.493545870747856   0.966948383535620   0.083765834651564
   0.826879204081189   0.966948383535620   0.083765834651564
   0.160212537414523   0.466948383535620   0.417099167984897
   0.493545870747856   0.466948383535620   0.417099167984897
   0.826879204081189   0.466948383535620   0.417099167984897
   0.160212537414523   0.966948383535620   0.417099167984897
   0.493545870747856   0.966948383535620   0.417099167984897
   0.826879204081189   0.966948383535620   0.417099167984897
   0.160212537414523   0.466948383535620   0.750432501318231
   0.493545870747856   0.466948383535620   0.750432501318231
   0.826879204081189   0.466948383535620   0.750432501318231
   0.160212537414523   0.966948383535620   0.750432501318231
   0.493545870747856   0.966948383535620   0.750432501318231
   0.826879204081189   0.966948383535620   0.750432501318231
   0.173122303707332   0.033046669583513   0.249569122663504
   0.506455637040665   0.033046669583513   0.249569122663504
   0.839788970373999   0.033046669583513   0.249569122663504
   0.173122303707332   0.533046669583513   0.249569122663504
   0.506455637040665   0.533046669583513   0.249569122663504
   0.839788970373999   0.533046669583513   0.249569122663504
   0.173122303707332   0.033046669583513   0.582902455996838
   0.506455637040665   0.033046669583513   0.582902455996838
   0.839788970373999   0.033046669583513   0.582902455996838
   0.173122303707332   0.533046669583513   0.582902455996838
   0.506455637040665   0.533046669583513   0.582902455996838
   0.839788970373999   0.533046669583513   0.582902455996838
   0.173122303707332   0.033046669583513   0.916235789330171
   0.506455637040665   0.033046669583513   0.916235789330171
   0.839788970373999   0.033046669583513   0.916235789330171
   0.173122303707332   0.533046669583513   0.916235789330171
   0.506455637040665   0.533046669583513   0.916235789330171
   0.839788970373999   0.533046669583513   0.916235789330171
   0.006456055817427   0.216948012869097   0.082902596226826
   0.339789389150760   0.216948012869097   0.082902596226826
   0.673122722484093   0.216948012869097   0.082902596226826
   0.006456055817427   0.716948012869097   0.082902596226826
   0.339789389150760   0.716948012869097   0.082902596226826
   0.673122722484093   0.716948012869097   0.082902596226826
   0.006456055817427   0.216948012869097   0.416235929560160
   0.339789389150760   0.216948012869097   0.416235929560160
   0.673122722484093   0.216948012869097   0.416235929560160
   0.006456055817427   0.716948012869097   0.416235929560160
   0.339789389150760   0.716948012869097   0.416235929560160
   0.673122722484093   0.716948012869097   0.416235929560160
   0.006456055817427   0.216948012869097   0.749569262893493
   0.339789389150760   0.216948012869097   0.749569262893493
   0.673122722484093   0.216948012869097   0.749569262893493
   0.006456055817427   0.716948012869097   0.749569262893493
   0.339789389150760   0.716948012869097   0.749569262893493
   0.673122722484093   0.716948012869097   0.749569262893493
   0.326878814303657   0.283046776168781   0.250432410896890
   0.660212147636990   0.283046776168781   0.250432410896890
   0.993545480970323   0.283046776168781   0.250432410896890
   0.326878814303657   0.783046776168781   0.250432410896890
   0.660212147636990   0.783046776168781   0.250432410896890
   0.993545480970323   0.783046776168781   0.250432410896890
   0.326878814303657   0.283046776168781   0.583765744230223
   0.660212147636990   0.283046776168781   0.583765744230223
   0.993545480970323   0.283046776168781   0.583765744230223
   0.326878814303657   0.783046776168781   0.583765744230223
   0.660212147636990   0.783046776168781   0.583765744230223
   0.993545480970323   0.783046776168781   0.583765744230223
   0.326878814303657   0.283046776168781   0.917099077563556
   0.660212147636990   0.283046776168781   0.917099077563556
   0.993545480970323   0.283046776168781   0.917099077563556
   0.326878814303657   0.783046776168781   0.917099077563556
   0.660212147636990   0.783046776168781   0.917099077563556
   0.993545480970323   0.783046776168781   0.917099077563556
   0.097241019300070   0.078528122874802   0.039011541686217
   0.430574352633403   0.078528122874802   0.039011541686217
   0.763907685966737   0.078528122874802   0.039011541686217
   0.097241019300070   0.578528122874802   0.039011541686217
   0.430574352633403   0.578528122874802   0.039011541686217
   0.763907685966737   0.578528122874802   0.039011541686217
   0.097241019300070   0.078528122874802   0.372344875019550
   0.430574352633403   0.078528122874802   0.372344875019550
   0.763907685966737   0.078528122874802   0.372344875019550
   0.097241019300070   0.578528122874802   0.372344875019550
   0.430574352633403   0.578528122874802   0.372344875019550
   0.763907685966737   0.578528122874802   0.372344875019550
   0.097241019300070   0.078528122874802   0.705678208352883
   0.430574352633403   0.078528122874802   0.705678208352883
   0.763907685966737   0.078528122874802   0.705678208352883
   0.097241019300070   0.578528122874802   0.705678208352883
   0.430574352633403   0.578528122874802   0.705678208352883
   0.763907685966737   0.578528122874802   0.705678208352883
   0.236093682005095   0.421466933840030   0.294323416509882
   0.569427015338428   0.421466933840030   0.294323416509882
   0.902760348671761   0.421466933840030   0.294323416509882
   0.236093682005095   0.921466933840030   0.294323416509882
   0.569427015338428   0.921466933840030   0.294323416509882
   0.902760348671761   0.921466933840030   0.294323416509882
   0.236093682005095   0.421466933840030   0.627656749843215
   0.569427015338428   0.421466933840030   0.627656749843215
   0.902760348671761   0.421466933840030   0.627656749843215
   0.236093682005095   0.921466933840030   0.627656749843215
   0.569427015338428   0.921466933840030   0.627656749843215
   0.902760348671761   0.921466933840030   0.627656749843215
   0.236093682005095   0.421466933840030   0.960990083176549
   0.569427015338428   0.421466933840030   0.960990083176549
   0.902760348671761   0.421466933840030   0.960990083176549
   0.236093682005095   0.921466933840030   0.960990083176549
   0.569427015338428   0.921466933840030   0.960990083176549
   0.902760348671761   0.921466933840030   0.960990083176549
   0.069427079695616   0.328528059975800   0.127656782361570
   0.402760413028949   0.328528059975800   0.127656782361570
   0.736093746362282   0.328528059975800   0.127656782361570
   0.069427079695616   0.828528059975800   0.127656782361570
   0.402760413028949   0.828528059975800   0.127656782361570
   0.736093746362282   0.828528059975800   0.127656782361570
   0.069427079695616   0.328528059975800   0.460990115694903
   0.402760413028949   0.328528059975800   0.460990115694903
   0.736093746362282   0.328528059975800   0.460990115694903
   0.069427079695616   0.828528059975800   0.460990115694903
   0.402760413028949   0.828528059975800   0.460990115694903
   0.736093746362282   0.828528059975800   0.460990115694903
   0.069427079695616   0.328528059975800   0.794323449028237
   0.402760413028949   0.328528059975800   0.794323449028237
   0.736093746362282   0.328528059975800   0.794323449028237
   0.069427079695616   0.828528059975800   0.794323449028237
   0.402760413028949   0.828528059975800   0.794323449028237
   0.736093746362282   0.828528059975800   0.794323449028237
   0.263907663084831   0.171466725255467   0.205678205604145
   0.597240996418165   0.171466725255467   0.205678205604145
   0.930574329751498   0.171466725255467   0.205678205604145
   0.263907663084831   0.671466725255467   0.205678205604145
   0.597240996418165   0.671466725255467   0.205678205604145
   0.930574329751498   0.671466725255467   0.205678205604145
   0.263907663084831   0.171466725255467   0.539011538937478
   0.597240996418165   0.171466725255467   0.539011538937478
   0.930574329751498   0.171466725255467   0.539011538937478
   0.263907663084831   0.671466725255467   0.539011538937478
   0.597240996418165   0.671466725255467   0.539011538937478
   0.930574329751498   0.671466725255467   0.539011538937478
   0.263907663084831   0.171466725255467   0.872344872270812
   0.597240996418165   0.171466725255467   0.872344872270812
   0.930574329751498   0.171466725255467   0.872344872270812
   0.263907663084831   0.671466725255467   0.872344872270812
   0.597240996418165   0.671466725255467   0.872344872270812
   0.930574329751498   0.671466725255467   0.872344872270812
   0.061314875555523   0.128675837662972   0.046475045434450
   0.394648208888857   0.128675837662972   0.046475045434450
   0.727981542222190   0.128675837662972   0.046475045434450
   0.061314875555523   0.628675837662972   0.046475045434450
   0.394648208888857   0.628675837662972   0.046475045434450
   0.727981542222190   0.628675837662972   0.046475045434450
   0.061314875555523   0.128675837662972   0.379808378767784
   0.394648208888857   0.128675837662972   0.379808378767784
   0.727981542222190   0.128675837662972   0.379808378767784
   0.061314875555523   0.628675837662972   0.379808378767784
   0.394648208888857   0.628675837662972   0.379808378767784
   0.727981542222190   0.628675837662972   0.379808378767784
   0.061314875555523   0.128675837662972   0.713141712101117
   0.394648208888857   0.128675837662972   0.713141712101117
   0.727981542222190   0.128675837662972   0.713141712101117
   0.061314875555523   0.628675837662972   0.713141712101117
   0.394648208888857   0.628675837662972   0.713141712101117
   0.727981542222190   0.628675837662972   0.713141712101117
   0.272019631067858   0.371319158823416   0.286859938394138
   0.605352964401191   0.371319158823416   0.286859938394138
   0.938686297734525   0.371319158823416   0.286859938394138
   0.272019631067858   0.871319158823416   0.286859938394138
   0.605352964401191   0.871319158823416   0.286859938394138
   0.938686297734525   0.871319158823416   0.286859938394138
   0.272019631067858   0.371319158823416   0.620193271727472
   0.605352964401191   0.371319158823416   0.620193271727472
   0.938686297734525   0.371319158823416   0.620193271727472
   0.272019631067858   0.871319158823416   0.620193271727472
   0.605352964401191   0.871319158823416   0.620193271727472
   0.938686297734525   0.871319158823416   0.620193271727472
   0.272019631067858   0.371319158823416   0.953526605060805
   0.605352964401191   0.371319158823416   0.953526605060805
   0.938686297734525   0.371319158823416   0.953526605060805
   0.272019631067858   0.871319158823416   0.953526605060805
   0.605352964401191   0.871319158823416   0.953526605060805
   0.938686297734525   0.871319158823416   0.953526605060805
   0.105353100265256   0.378675931546324   0.120193270735213
   0.438686433598589   0.378675931546324   0.120193270735213
   0.772019766931923   0.378675931546324   0.120193270735213
   0.105353100265256   0.878675931546324   0.120193270735213
   0.438686433598589   0.878675931546324   0.120193270735213
   0.772019766931923   0.878675931546324   0.120193270735213
   0.105353100265256   0.378675931546324   0.453526604068547
   0.438686433598589   0.378675931546324   0.453526604068547
   0.772019766931923   0.378675931546324   0.453526604068547
   0.105353100265256   0.878675931546324   0.453526604068547
   0.438686433598589   0.878675931546324   0.453526604068547
   0.772019766931923   0.878675931546324   0.453526604068547
   0.105353100265256   0.378675931546324   0.786859937401880
   0.438686433598589   0.378675931546324   0.786859937401880
   0.772019766931923   0.378675931546324   0.786859937401880
   0.105353100265256   0.878675931546324   0.786859937401880
   0.438686433598589   0.878675931546324   0.786859937401880
   0.772019766931923   0.878675931546324   0.786859937401880
   0.227981463797078   0.121318902026878   0.213141738315346
   0.561314797130411   0.121318902026878   0.213141738315346
   0.894648130463745   0.121318902026878   0.213141738315346
   0.227981463797078   0.621318902026878   0.213141738315346
   0.561314797130411   0.621318902026878   0.213141738315346
   0.894648130463745   0.621318902026878   0.213141738315346
   0.227981463797078   0.121318902026878   0.546475071648679
   0.561314797130411   0.121318902026878   0.546475071648679
   0.894648130463745   0.121318902026878   0.546475071648679
   0.227981463797078   0.621318902026878   0.546475071648679
   0.561314797130411   0.621318902026878   0.546475071648679
   0.894648130463745   0.621318902026878   0.546475071648679
   0.227981463797078   0.121318902026878   0.879808404982012
   0.561314797130411   0.121318902026878   0.879808404982012
   0.894648130463745   0.121318902026878   0.879808404982012
   0.227981463797078   0.621318902026878   0.879808404982012
   0.561314797130411   0.621318902026878   0.879808404982012
   0.894648130463745   0.621318902026878   0.879808404982012
   0.123536951736065   0.066556301267625   0.329755971683786
   0.456870285069398   0.066556301267625   0.329755971683786
   0.790203618402731   0.066556301267625   0.329755971683786
   0.123536951736065   0.566556301267625   0.329755971683786
   0.456870285069398   0.566556301267625   0.329755971683786
   0.790203618402731   0.566556301267625   0.329755971683786
   0.123536951736065   0.066556301267625   0.663089305017119
   0.456870285069398   0.066556301267625   0.663089305017119
   0.790203618402731   0.066556301267625   0.663089305017119
   0.123536951736065   0.566556301267625   0.663089305017119
   0.456870285069398   0.566556301267625   0.663089305017119
   0.790203618402731   0.566556301267625   0.663089305017119
   0.123536951736065   0.066556301267625   0.996422638350452
   0.456870285069398   0.066556301267625   0.996422638350452
   0.790203618402731   0.066556301267625   0.996422638350452
   0.123536951736065   0.566556301267625   0.996422638350452
   0.456870285069398   0.566556301267625   0.996422638350452
   0.790203618402731   0.566556301267625   0.996422638350452
   0.209797812583932   0.433438859860319   0.003578984396467
   0.543131145917265   0.433438859860319   0.003578984396467
   0.876464479250598   0.433438859860319   0.003578984396467
   0.209797812583932   0.933438859860319   0.003578984396467
   0.543131145917265   0.933438859860319   0.003578984396467
   0.876464479250598   0.933438859860319   0.003578984396467
   0.209797812583932   0.433438859860319   0.336912317729800
   0.543131145917265   0.433438859860319   0.336912317729800
   0.876464479250598   0.433438859860319   0.336912317729800
   0.209797812583932   0.933438859860319   0.336912317729800
   0.543131145917265   0.933438859860319   0.336912317729800
   0.876464479250598   0.933438859860319   0.336912317729800
   0.209797812583932   0.433438859860319   0.670245651063133
   0.543131145917265   0.433438859860319   0.670245651063133
   0.876464479250598   0.433438859860319   0.670245651063133
   0.209797812583932   0.933438859860319   0.670245651063133
   0.543131145917265   0.933438859860319   0.670245651063133
   0.876464479250598   0.933438859860319   0.670245651063133
   0.043131038817397   0.316556128061505   0.170245671176053
   0.376464372150730   0.316556128061505   0.170245671176053
   0.709797705484063   0.316556128061505   0.170245671176053
   0.043131038817397   0.816556128061505   0.170245671176053
   0.376464372150730   0.816556128061505   0.170245671176053
   0.709797705484063   0.816556128061505   0.170245671176053
   0.043131038817397   0.316556128061505   0.503579004509386
   0.376464372150730   0.316556128061505   0.503579004509386
   0.709797705484063   0.316556128061505   0.503579004509386
   0.043131038817397   0.816556128061505   0.503579004509386
   0.376464372150730   0.816556128061505   0.503579004509386
   0.709797705484063   0.816556128061505   0.503579004509386
   0.043131038817397   0.316556128061505   0.836912337842720
   0.376464372150730   0.316556128061505   0.836912337842720
   0.709797705484063   0.316556128061505   0.836912337842720
   0.043131038817397   0.816556128061505   0.836912337842720
   0.376464372150730   0.816556128061505   0.836912337842720
   0.709797705484063   0.816556128061505   0.836912337842720
   0.290203761644255   0.183438572557596   0.163089318847236
   0.623537094977588   0.183438572557596   0.163089318847236
   0.956870428310921   0.183438572557596   0.163089318847236
   0.290203761644255   0.683438572557596   0.163089318847236
   0.623537094977588   0.683438572557596   0.163089318847236
   0.956870428310921   0.683438572557596   0.163089318847236
   0.290203761644255   0.183438572557596   0.496422652180570
   0.623537094977588   0.183438572557596   0.496422652180570
   0.956870428310921   0.183438572557596   0.496422652180570
   0.290203761644255   0.683438572557596   0.496422652180570
   0.623537094977588   0.683438572557596   0.496422652180570
   0.956870428310921   0.683438572557596   0.496422652180570
   0.290203761644255   0.183438572557596   0.829755985513903
   0.623537094977588   0.183438572557596   0.829755985513903
   0.956870428310921   0.183438572557596   0.829755985513903
   0.290203761644255   0.683438572557596   0.829755985513903
   0.623537094977588   0.683438572557596   0.829755985513903
   0.956870428310921   0.683438572557596   0.829755985513903
   0.078295793035203   0.046691303428515   0.129202472771498
   0.411629126368536   0.046691303428515   0.129202472771498
   0.744962459701870   0.046691303428515   0.129202472771498
   0.078295793035203   0.546691303428515   0.129202472771498
   0.411629126368536   0.546691303428515   0.129202472771498
   0.744962459701870   0.546691303428515   0.129202472771498
   0.078295793035203   0.046691303428515   0.462535806104831
   0.411629126368536   0.046691303428515   0.462535806104831
   0.744962459701870   0.046691303428515   0.462535806104831
   0.078295793035203   0.546691303428515   0.462535806104831
   0.411629126368536   0.546691303428515   0.462535806104831
   0.744962459701870   0.546691303428515   0.462535806104831
   0.078295793035203   0.046691303428515   0.795869139438165
   0.411629126368536   0.046691303428515   0.795869139438165
   0.744962459701870   0.046691303428515   0.795869139438165
   0.078295793035203   0.546691303428515   0.795869139438165
   0.411629126368536   0.546691303428515   0.795869139438165
   0.744962459701870   0.546691303428515   0.795869139438165
   0.255038989317017   0.453303742299264   0.204132466724219
   0.588372322650350   0.453303742299264   0.204132466724219
   0.921705655983683   0.453303742299264   0.204132466724219
   0.255038989317017   0.953303742299264   0.204132466724219
   0.588372322650350   0.953303742299264   0.204132466724219
   0.921705655983683   0.953303742299264   0.204132466724219
   0.255038989317017   0.453303742299264   0.537465800057553
   0.588372322650350   0.453303742299264   0.537465800057553
   0.921705655983683   0.453303742299264   0.537465800057553
   0.255038989317017   0.953303742299264   0.537465800057553
   0.588372322650350   0.953303742299264   0.537465800057553
   0.921705655983683   0.953303742299264   0.537465800057553
   0.255038989317017   0.453303742299264   0.870799133390886
   0.588372322650350   0.453303742299264   0.870799133390886
   0.921705655983683   0.453303742299264   0.870799133390886
   0.255038989317017   0.953303742299264   0.870799133390886
   0.588372322650350   0.953303742299264   0.870799133390886
   0.921705655983683   0.953303742299264   0.870799133390886
   0.088372826956394   0.296691219056310   0.037465946312256
   0.421706160289728   0.296691219056310   0.037465946312256
   0.755039493623061   0.296691219056310   0.037465946312256
   0.088372826956394   0.796691219056310   0.037465946312256
   0.421706160289728   0.796691219056310   0.037465946312256
   0.755039493623061   0.796691219056310   0.037465946312256
   0.088372826956394   0.296691219056310   0.370799279645589
   0.421706160289728   0.296691219056310   0.370799279645589
   0.755039493623061   0.296691219056310   0.370799279645589
   0.088372826956394   0.796691219056310   0.370799279645589
   0.421706160289728   0.796691219056310   0.370799279645589
   0.755039493623061   0.796691219056310   0.370799279645589
   0.088372826956394   0.296691219056310   0.704132612978923
   0.421706160289728   0.296691219056310   0.704132612978923
   0.755039493623061   0.296691219056310   0.704132612978923
   0.088372826956394   0.796691219056310   0.704132612978923
   0.421706160289728   0.796691219056310   0.704132612978923
   0.755039493623061   0.796691219056310   0.704132612978923
   0.244961989415389   0.203303563684635   0.295869029280317
   0.578295322748722   0.203303563684635   0.295869029280317
   0.911628656082056   0.203303563684635   0.295869029280317
   0.244961989415389   0.703303563684635   0.295869029280317
   0.578295322748722   0.703303563684635   0.295869029280317
   0.911628656082056   0.703303563684635   0.295869029280317
   0.244961989415389   0.203303563684635   0.629202362613650
   0.578295322748722   0.203303563684635   0.629202362613650
   0.911628656082056   0.203303563684635   0.629202362613650
   0.244961989415389   0.703303563684635   0.629202362613650
   0.578295322748722   0.703303563684635   0.629202362613650
   0.911628656082056   0.703303563684635   0.629202362613650
   0.244961989415389   0.203303563684635   0.962535695946984
   0.578295322748722   0.203303563684635   0.962535695946984
   0.911628656082056   0.203303563684635   0.962535695946984
   0.244961989415389   0.703303563684635   0.962535695946984
   0.578295322748722   0.703303563684635   0.962535695946984
   0.911628656082056   0.703303563684635   0.962535695946984
