super cell
        1.0000000000
  13.256151411776955  -0.000006967084929   0.000000207885114
  -0.000002082248204   3.923059295407425  -0.000000812388095
   0.000000097146986  -0.000001195899524   5.830381741122568
    8   16    8
 Direct
   0.336794581543941   0.693159324245684   0.209746660641393
   0.663205294789854   0.306845445677595   0.709745649199824
   0.836792879650858   0.806843866055715   0.209746540272448
   0.163206765050731   0.193161252012999   0.709747604817238
   0.411325693229287   0.614409951137958   0.397549905053317
   0.588673892063611   0.385594381057395   0.897549512436079
   0.911324502400049   0.885592944626133   0.397550255261280
   0.088675019972619   0.114411378630365   0.897551045406900
   0.323235067087268   0.939948624505945   0.923337667098458
   0.676764603472307   0.060055827400554   0.423336663593858
   0.823233284817540   0.560055443257198   0.923336725534369
   0.176766311270562   0.439950166189028   0.423337869292823
   0.374252444744776   0.478250498293271   0.536315574051514
   0.625747240264303   0.521753580208632   0.036314789281697
   0.874251369011787   0.021752549388765   0.536315424704718
   0.125748185976086   0.978251799840358   0.036316148473944
   0.472154405179495   0.457543942929519   0.327623712389652
   0.527845193624437   0.542460179546339   0.827623447489280
   0.972153499809203   0.042458364870015   0.327624093025754
   0.027846227025456   0.957545861660336   0.827624584824065
   0.445522876105073   0.849377986932772   0.460594496658494
   0.554476866102597   0.150626088913221   0.960593878388224
   0.945521356793989   0.650624741086276   0.460594843788591
   0.054478062467751   0.349379188709925   0.960595733554584
   0.376270257534692   0.885970490697076   0.040950854210095
   0.623729372793207   0.114033216497603   0.540949737178032
   0.876268327901677   0.614031892543416   0.040950301374409
   0.123731170499951   0.385973245513334   0.540951883919845
   0.248431931531364   0.593764899325286   0.203286209380678
   0.751567225247271   0.406239799324666   0.703284845069305
   0.748430613637112   0.906238001963693   0.203285977306081
   0.251569285254078   0.093767475721265   0.703287057670941
