 C  H  N 
        1.0000000000
   9.674829654617486   0.000000000000000   0.000000000000000
  -4.837414827308743   8.378651213167382   0.000000000000000
   0.000000000000000   0.000000000000000  14.144692111223401
   36   36   36
 Direct
   0.000000023251185   0.135344431505850   0.125000019089603
   0.000000023251185   0.135344431505850   0.625000019089603
   1.000000023710794   0.864655574960746   0.374999977516718
   1.000000023710794   0.864655574960746   0.874999977516718
   0.864655574641096   0.864655571861491   0.124999978492129
   0.864655574641096   0.864655571861491   0.624999978492129
   0.135344472880819   0.135344436873274   0.375000015891808
   0.135344472880819   0.135344436873274   0.875000015891808
   0.135344509816583   0.000000009871327   0.124999993584908
   0.135344509816583   0.000000009871327   0.624999993584908
   0.864655536559566   0.999999992185624   0.375000002680625
   0.864655536559566   0.999999992185624   0.875000002680625
   0.666666522823474   0.468677661240594   0.291668938338244
   0.666666522823474   0.468677661240594   0.791668938338244
   0.666666534765087   0.197988858532159   0.041668888801495
   0.666666534765087   0.197988858532159   0.541668888801495
   0.531322347403791   0.197988864467658   0.291668896736294
   0.531322347403791   0.197988864467658   0.791668896736294
   0.802011179155628   0.468677655546593   0.041668930729059
   0.802011179155628   0.468677655546593   0.541668930729059
   0.802011215865248   0.333333506304998   0.291668907858882
   0.802011215865248   0.333333506304998   0.791668907858882
   0.531322308898481   0.333333478304608   0.041668921620375
   0.531322308898481   0.333333478304608   0.541668921620375
   0.333333511844048   0.802011142658983   0.458331105566948
   0.333333511844048   0.802011142658983   0.958331105566948
   0.333333523695088   0.531322349067693   0.208331060392104
   0.333333523695088   0.531322349067693   0.708331060392104
   0.197988849059289   0.531322347919675   0.458331068173961
   0.197988849059289   0.531322347919675   0.958331068173961
   0.468677701236075   0.802011145066254   0.208331097525469
   0.468677701236075   0.802011145066254   0.708331097525469
   0.468677720743405   0.666666507755658   0.458331071502751
   0.468677720743405   0.666666507755658   0.958331071502751
   0.197988833183096   0.666666504812505   0.208331092027786
   0.197988833183096   0.666666504812505   0.708331092027786
   1.000000005557182   0.247473291318373   0.125000039841895
   1.000000005557182   0.247473291318373   0.625000039841895
   0.000000043482437   0.752526716939692   0.374999956166686
   0.000000043482437   0.752526716939692   0.874999956166686
   0.752526693603863   0.752526710991746   0.124999961736719
   0.752526693603863   0.752526710991746   0.624999961736719
   0.247473349347987   0.247473300287878   0.375000044896032
   0.247473349347987   0.247473300287878   0.875000044896032
   0.247473411069496   1.000000005970646   0.124999992845121
   0.247473411069496   1.000000005970646   0.624999992845121
   0.752526629314403  -0.000000012272497   0.374999992579326
   0.752526629314403  -0.000000012272497   0.874999992579326
   0.666666472276209   0.580806509114058   0.291668958652172
   0.666666472276209   0.580806509114058   0.791668958652172
   0.666666523729476   0.085859975146514   0.041668861788618
   0.666666523729476   0.085859975146514   0.541668861788618
   0.419193488386249   0.085859977591277   0.291668879199547
   0.419193488386249   0.085859977591277   0.791668879199547
   0.914140081191224   0.580806505596739   0.041668940825207
   0.914140081191224   0.580806505596739   0.541668940825207
   0.914140145943033   0.333333540146151   0.291668891293031
   0.914140145943033   0.333333540146151   0.791668891293031
   0.419193418904934   0.333333509496735   0.041668923849556
   0.419193418904934   0.333333509496735   0.541668923849556
   0.333333525031787   0.914140029596605   0.458331125525864
   0.333333525031787   0.914140029596605   0.958331125525864
   0.333333571410536   0.419193499335503   0.208331047067777
   0.333333571410536   0.419193499335503   0.708331047067777
   0.085859951831643   0.419193500433923   0.458331067065807
   0.085859951831643   0.419193500433923   0.958331067065807
   0.580806562836591   0.914140028637023   0.208331105472588
   0.580806562836591   0.914140028637023   0.708331105472588
   0.580806612104908   0.666666480864860   0.458331063793833
   0.580806612104908   0.666666480864860   0.958331063793833
   0.085859906988053   0.666666474880706   0.208331114794115
   0.085859906988053   0.666666474880706   0.708331114794115
   0.857467906226437   1.000000009453472   0.124999988440296
   0.857467906226437   1.000000009453472   0.624999988440296
   0.142532141941119   0.000000000700160   0.375000002298953
   0.142532141941119   0.000000000700160   0.875000002298953
   0.000000058938330   0.857467927505188   0.124999982419335
   0.000000058938330   0.857467927505188   0.624999982419335
  -0.000000014843047   0.142532077213384   0.375000013216514
  -0.000000014843047   0.142532077213384   0.875000013216514
   0.142532162126154   0.142532099675876   0.125000023153679
   0.142532162126154   0.142532099675876   0.625000023153679
   0.857467883958601   0.857467905565171   0.374999978362950
   0.857467883958601   0.857467905565171   0.874999978362950
   0.524134470466111   0.333333196151354   0.291668919700968
   0.524134470466111   0.333333196151354   0.791668919700968
   0.809198752528717   0.333333180160676   0.041668919104887
   0.809198752528717   0.333333180160676   0.541668919104887
   0.666666876987931   0.190801317441189   0.291668898992533
   0.666666876987931   0.190801317441189   0.791668898992533
   0.666666798600071   0.475865506683124   0.041668940106275
   0.666666798600071   0.475865506683124   0.541668940106275
   0.809198770882221   0.475865533886686   0.291668941554085
   0.809198770882221   0.475865533886686   0.791668941554085
   0.524134453872364   0.190801283775593   0.041668901110540
   0.524134453872364   0.190801283775593   0.541668901110540
   0.190801289511648   0.666666833353559   0.458331079189066
   0.190801289511648   0.666666833353559   0.958331079189066
   0.475865578989864   0.666666812809517   0.208331075741223
   0.475865578989864   0.666666812809517   0.708331075741223
   0.333333226709744   0.524134487025788   0.458331060872635
   0.333333226709744   0.524134487025788   0.958331060872635
   0.333333174797056   0.809198693477115   0.208331095575334
   0.333333174797056   0.809198693477115   0.708331095575334
   0.475865585535255   0.809198709041013   0.458331086022260
   0.475865585535255   0.809198709041013   0.958331086022260
   0.190801279734610   0.524134476143854   0.208331061750771
   0.190801279734610   0.524134476143854   0.708331061750771
