 C  H  N  O 
 1.0000000000000000
    25.0000000000000000    0.0000000000000000    0.0000000000000000
     0.0000000000000000   25.0000000000000000    0.0000000000000000
     0.0000000000000000    0.0000000000000000   25.0000000000000000
 C   H   N   O  
   4   4   2   2
Cartesian
 11.6888499999999986 11.2711649999999999 12.5002100000000009
 13.7937599999999989 12.6561050000000002 12.5000600000000013
 12.9503599999999999 13.8399450000000002 12.4991400000000006
 11.6047699999999985 13.7126349999999988 12.4990900000000007
 13.6139200000000002 10.5867049999999985 12.4994200000000006
  9.9834800000000001 12.3974849999999996 12.4990800000000011
 13.4306899999999985 14.8103750000000005 12.4990400000000008
 10.9329599999999996 14.5664349999999985 12.4988500000000009
 10.9932999999999996 12.4832649999999994 12.4999199999999995
 13.0630500000000005 11.4422049999999995 12.5001999999999995
 15.0165199999999999 12.6355349999999991 12.5011500000000009
 11.1265299999999989 10.1896249999999995 12.5007800000000007
