 C  H  O                                
   1.0000000000000000     
    20.0000000000000000    0.0000000000000000    0.0000000000000000
     0.0000000000000000   20.0000000000000000    0.0000000000000000
     0.0000000000000000    0.0000000000000000   20.0000000000000000
   C    H    O 
     2     2     4
Direct
  0.2946101799493164  0.2910306386972081  0.2668022868565458
  0.2579736950507225  0.3320857363033838  0.3218012131438925
  0.2399102393716603  0.2200467319721184  0.2973816776993417
  0.3126736356281370  0.4030696430273935  0.2912218223003222
  0.3370201113394842  0.3155680732318800  0.2312113222980443
  0.2155637636608461  0.3075483017671701  0.3573921777016622
  0.2744777686905238  0.2268002659486257  0.2628124074762387
  0.2781061063093091  0.3963161090522220  0.3253910925239509

  0.00000000E+00  0.00000000E+00  0.00000000E+00
  0.00000000E+00  0.00000000E+00  0.00000000E+00
  0.00000000E+00  0.00000000E+00  0.00000000E+00
  0.00000000E+00  0.00000000E+00  0.00000000E+00
  0.00000000E+00  0.00000000E+00  0.00000000E+00
  0.00000000E+00  0.00000000E+00  0.00000000E+00
  0.00000000E+00  0.00000000E+00  0.00000000E+00
  0.00000000E+00  0.00000000E+00  0.00000000E+00
