 C  H 
 1.0000000000000000
    13.2381173553403855    0.0000000000000000    0.0000000000000000
     0.0000000000000000   13.2381173553403855    0.0000000000000000
     0.0000000000000000    0.0000000000000000    8.9099595664694746
 C   H  
  80 128
Cartesian
  6.5617859428449741  6.5617884925511500  1.7913403819771463
 13.1808446205155505  6.5617884925511927  1.7913403819771800
  6.5617859428449643 13.1808471702213783  1.7913403819773217
 13.1808446205156891 13.1808471702213943  1.7913403819771712
  6.3716075199594737  1.1969242039756602  0.8974666625365334
 12.9906661976294941  1.1969242039760308  0.8974666625368303
  6.3716075199594231  7.8159828816462831  0.8974666625368297
 12.9906661976295368  7.8159828816462031  0.8974666625368430
  1.0010370522126040  1.3880704346062354  8.9037718036294375
  7.6200957298826060  1.3880704346065593  8.9037718036290787
  1.0010370522124759  8.0071291122765125  8.9037718036292492
  7.6200957298826211  8.0071291122765391  8.9037718036292368
  0.1329059039318230  5.3075941396810657  0.8974667506047764
  6.7519645816021443  5.3075941396810125  0.8974667506048061
  0.1329059039318209 11.9266528173512203  0.8974667506047317
  6.7519645816020724 11.9266528173516644  0.8974667506045177
  5.1164462090497489  1.0010408068484695  0.0061861739123796
 11.7355048867201130  1.0010408068484196  0.0061861739124231
  5.1164462090498599  7.6200994845184704  0.0061861739124970
 11.7355048867201930  7.6200994845186960  0.0061861739122644
  1.1969218263857668  0.1329081067762614  8.0124933105831548
  7.8159805040557151  0.1329081067762002  8.0124933105834693
  1.1969218263858605  6.7519667844464291  8.0124933105832028
  7.8159805040561627  6.7519667844464824  8.0124933105831548
  5.5034763815766032  5.1164478071372557  8.9037717330780453
 12.1225350592469194  5.1164478071371322  8.9037717330778801
  5.5034763815765038 11.7355064848073045  8.9037717330780488
 12.1225350592468306 11.7355064848073845  8.9037717330780062
  1.3880671206053021  5.5034772988547971  0.0061863811067279
  8.0071257982754300  5.5034772988547607  0.0061863811066538
  1.3880671206053841 12.1225359765251532  0.0061863811068671
  8.0071257982755188 12.1225359765248246  0.0061863811065920
  5.3075917373505499  6.3716100096357424  8.0124931573706295
 11.9266504150207062  6.3716100096357193  8.0124931573707165
  5.3075917373509371 12.9906686873059538  8.0124931573709599
 11.9266504150207115 12.9906686873059360  8.0124931573707343
  6.5617861219210623  6.5617884710157446  7.1186194169771690
 13.1808447995912665  6.5617884710158281  7.1186194169771646
  6.5617861219210107 13.1808471486859968  7.1186194169769967
 13.1808447995912257 13.1808471486860146  7.1186194169771531
  3.2522564976633221  3.2522587829296077  2.6636381726264444
  9.8713151753335531  3.2522587829296077  2.6636381726259661
  3.2522564976632804  9.8713174605998031  2.6636381726264493
  9.8713151753335868  9.8713174605997551  2.6636381726259013
  3.2522563262330086  3.2522591217651211  6.2463187075294444
  9.8713150039031881  3.2522591217651389  6.2463187075298672
  3.2522563262329975  9.8713177994352321  6.2463187075294400
  9.8713150039031934  9.8713177994352339  6.2463187075299107
  3.4424349180912408  4.5064532309777245  3.5575117818231066
 10.0614935957612506  4.5064532309765779  3.5575117818239099
  3.4424349180913150 11.1255119086479439  3.5575117818231168
 10.0614935957612790 11.1255119086466170  3.5575117818239632
  4.5064506363274592  3.0620804037391416  5.3524449821374107
 11.1255093139965613  3.0620804037392673  5.3524449821366336
  4.5064506363274512  9.6811390814092757  5.3524449821374311
 11.1255093139964796  9.6811390814095013  5.3524449821365305
  3.0620778693928430  1.9980644269737073  3.5575118862726258
  9.6811365470631827  1.9980644269748464  3.5575118862734043
  3.0620778693928439  8.6171231046438699  3.5575118862726134
  9.6811365470632413  8.6171231046451755  3.5575118862734882
  1.9980620310895161  3.4424373570437812  5.3524447683055634
  8.6171207087607353  3.4424373570436138  5.3524447683047773
  1.9980620310895356 10.0614960347139739  5.3524447683055767
  8.6171207087608863 10.0614960347138283  5.3524447683046477
  2.1939469521126660  4.6975997295884682  4.4611661709531809
  8.8130056297826531  4.6975997295888607  4.4611661709532466
  2.1939469521126425 11.3166584072586058  4.4611661709530939
  8.8130056297826957 11.3166584072591121  4.4611661709532600
  4.6975961450651642  4.3105700419158017  4.4487921467613907
 11.3166548227356465  4.3105700419161366  4.4487921467614955
  4.6975961450652317 10.9296287195858870  4.4487921467613596
 11.3166548227357247 10.9296287195863595  4.4487921467615124
  4.3105659709660342  1.8069181238508403  4.4611662366706053
 10.9296246486364410  1.8069181238504455  4.4611662366706391
  4.3105659709660396  8.4259768015210028  4.4611662366705493
 10.9296246486364019  8.4259768015205161  4.4611662366707732
  1.8069166361812865  2.1939476737970991  4.4487920985172034
  8.4259753138511631  2.1939476737967412  4.4487920985172753
  1.8069166361812348  8.8130063514673829  4.4487920985170826
  8.4259753138512092  8.8130063514668144  4.4487920985173872
  0.8139663510031362  0.0737080865271951  2.4438173319389263
  7.4330250286734429  0.0737080865272953  2.4438173319389915
  0.8139663510031315  6.6927667641974038  2.4438173319389569
  7.4330250286734785  6.6927667641974411  2.4438173319390404
  6.2394597494660902  2.0836585556395137  1.5299968491290015
 12.8585184271363495  2.0836585556392806  1.5299968491289606
  6.2394597494661408  8.7027172333094693  1.5299968491289011
 12.8585184271363513  8.7027172333094835  1.5299968491289175
  1.8922124433347456  1.5543784108891283  0.6095758974763887
  8.5112711210050325  1.5543784108891723  0.6095758974764175
  1.8922124433348451  8.1734370885593073  0.6095758974764635
  8.5112711210050467  8.1734370885593339  0.6095758974764690
  0.8753005253330567  2.2790677351203561  8.2753036384722201
  7.4943592030032784  2.2790677351201767  8.2753036384722680
  0.8753005253331247  8.8981264127904502  8.2753036384722609
  7.4943592030033104  8.8981264127904609  8.2753036384722645
  5.6905470935180711  6.4308101068366117  2.4438173022684451
 12.3096057711881244  6.4308101068365957  2.4438173022685272
  5.6905470935181182 13.0498687845068559  2.4438173022684189
 12.3096057711881244 13.0498687845067582  2.4438173022685890
  0.2650536450963760  4.4208596249778260  1.5299968488938389
  6.8841123227665904  4.4208596249778704  1.5299968488938125
  0.2650536450964080 11.0399183026480188  1.5299968488938209
  6.8841123227666197 11.0399183026478891  1.5299968488939886
  4.9501447469861191  1.8922158888439216  8.3003793800776986
 11.5692034246563047  1.8922158888439671  8.3003793800777874
  4.9501447469861448  8.5112745665142189  8.3003793800776595
 11.5692034246563562  8.5112745665141070  8.3003793800777554
  4.2254462367900292  0.8753103623834563  0.6346515313254488
 10.8445049144601757  0.8753103623834397  0.6346515313255677
  4.2254462367900576  7.4943690400536491  0.6346515313254432
 10.8445049144601438  7.4943690400536411  0.6346515313255295
  2.0836563167255724  0.2650560541261985  7.3799637068472350
  8.7027149943959294  0.2650560541261946  7.3799637068471107
  2.0836563167256075  6.8841147317963465  7.3799637068472705
  8.7027149943957554  6.8841147317963687  7.3799637068472954
  4.6123009176239789  4.9501397592805301  0.6095759067426847
 11.2313595952940641  4.9501397592805354  0.6095759067427492
  4.6123009176239913 11.5691984369507388  0.6095759067427098
 11.2313595952941245 11.5691984369507175  0.6095759067427445
  5.6292129748172215  4.2254504353377245  8.2753035388409621
 12.2482716524873556  4.2254504353378097  8.2753035388410332
  5.6292129748171940 10.8445091130079465  8.2753035388410385
 12.2482716524873627 10.8445091130079625  8.2753035388410048
  1.5543689473612647  4.6123023150063274  8.3003795520165902
  8.1734276250314863  4.6123023150063780  8.3003795520166062
  1.5543689473612523 11.2313609926764642  8.3003795520164836
  8.1734276250314579 11.2313609926766382  8.3003795520166648
  2.2790672172135169  5.6292081010908879  0.6346518058498259
  8.8981258948837709  5.6292081010909270  0.6346518058498503
  2.2790672172134525 12.2482667787610762  0.6346518058497204
  8.8981258948837478 12.2482667787611490  0.6346518058498358
  4.4208571925423552  6.2394621502579604  7.3799636763752448
 11.0399158702125337  6.2394621502579746  7.3799636763752421
  4.4208571925421118 12.8585208279280927  7.3799636763751160
 11.0399158702124769 12.8585208279281726  7.3799636763752847
  6.4308080702491326  0.8139687024662806  6.4661425555080507
 13.0498667479192960  0.8139687024664006  6.4661425555080774
  6.4308080702491752  7.4330273801365729  6.4661425555080303
 13.0498667479193688  7.4330273801365410  6.4661425555080543
  0.0737053880967821  5.6905497646581757  6.4661424195455357
  6.6927640657669922  5.6905497646582104  6.4661424195455490
  0.0737053880967231 12.3096084423284253  6.4661424195455428
  6.6927640657669496 12.3096084423283703  6.4661424195455615
  2.3810173091680542  3.3832371518551652  2.0111612990380134
  9.0000759868383540  3.3832371518551603  2.0111612990380747
  2.3810173091681239 10.0022958295253819  2.0111612990380108
  9.0000759868384161 10.0022958295253108  2.0111612990380787
  3.3832344884165391  4.1234979114971386  6.8987954349342733
 10.0022931660866892  4.1234979114970045  6.8987954349342040
  3.3832344884165502 10.7425565891672790  6.8987954349342937
 10.0022931660867176 10.7425565891672559  6.8987954349342102
  4.1234952259064750  3.1212804355529093  2.0111611492288901
 10.7425539035765585  3.1212804355529324  2.0111611492289865
  4.1234952259065416  9.7403391132230848  2.0111611492288759
 10.7425539035765905  9.7403391132230723  2.0111611492289971
  3.1212784210277222  2.3810202553242519  6.8987958625372201
  9.7403370986978910  2.3810202553243021  6.8987958625371499
  3.1212784210276898  9.0000789329944002  6.8987958625371872
  9.7403370986979141  9.0000789329945761  6.8987958625371286
  3.5745827881694834  5.3931874800400950  2.9249817321765592
 10.1936414658397680  5.3931874800406501  2.9249817321761808
  3.5745827881695615 12.0122461577102584  2.9249817321765943
 10.1936414658398320 12.0122461577108623  2.9249817321761027
  5.3931854217033921  2.9299325196702606  5.9849745357987461
 12.0122440993740831  2.9299325196701558  5.9849745357991289
  5.3931854217033850  9.5489911973403565  5.9849745357987576
 12.0122440993741666  9.5489911973403405  5.9849745357991866
  2.9299300811634619  1.1113300895299398  2.9249818713547286
  9.5489887588335591  1.1113300895293932  2.9249818713543179
  2.9299300811634352  7.7303887672001403  2.9249818713546936
  9.5489887588335751  7.7303887671994840  2.9249818713543010
  1.1113274620726952  3.5745852605947555  5.9849745005797210
  7.7303861397423539  3.5745852605948216  5.9849745005800701
  1.1113274620727014 10.1936439382649606  5.9849745005796944
  7.7303861397423184 10.1936439382650530  5.9849745005800976
  1.3027713553162084  4.8639074282045920  3.8454025532845564
  7.9218300329864642  4.8639074282045804  3.8454025532845986
  1.3027713553163094 11.4829661058748176  3.8454025532845852
  7.9218300329865041 11.4829661058747696  3.8454025532845533
  4.8638978341198360  5.2017449468897876  5.0645587025617562
 11.4829565117899879  5.2017449468896206  5.0645587025616781
  4.8638978341198875 11.8208036245599342  5.0645587025618068
 11.4829565117900305 11.8208036245597778  5.0645587025616319
  5.2017415027381286  1.6406101873169963  3.8454026738182545
 11.8208001804082201  1.6406101873169989  3.8454026738183171
  5.2017415027380878  8.2596688649871250  3.8454026738182634
 11.8208001804082894  8.2596688649871517  3.8454026738183216
  1.6406147138577796  1.3027728125447908  5.0645585930247625
  8.2596733915279614  1.3027728125449398  5.0645585930246257
  1.6406147138577254  7.9218314902149514  5.0645585930247403
  8.2596733915280023  7.9218314902151974  5.0645585930246124
  2.3196832438085981  5.5885968326984674  5.0896343335943977
  8.9387419214787602  5.5885968326983342  5.0896343335943168
  2.3196832438086767 12.2076555103686921  5.0896343335944447
  8.9387419214788046 12.2076555103685056  5.0896343335942493
  5.5885963589085819  4.1848392767122018  3.8203269022469084
 12.2076550365787142  4.1848392767121938  3.8203269022469710
  5.5885963589085970 10.8038979543823324  3.8203269022469599
 12.2076550365787551 10.8038979543823537  3.8203269022469670
  4.1848295267064728  0.9159208263798819  5.0896345928059983
 10.8038882043766495  0.9159208263799768  5.0896345928059121
  4.1848295267064133  7.5349795040500052  5.0896345928059876
 10.8038882043766780  7.5349795040502237  5.0896345928059104
  0.9159166125691566  2.3196786629900474  3.8203268127896695
  7.5349752902393883  2.3196786629900594  3.8203268127896739
  0.9159166125691857  8.9387373406602855  3.8203268127896477
  7.5349752902393821  8.9387373406602428  3.8203268127896544
