C H
        1.0000000000
  17.120006259990557   0.000000000000000   0.199345354323078
   0.000000000000000  12.056953746922714   0.000000000000000
 -12.828973842657538   0.000000000000000  18.114950650925813
  224  160
 Direct
   0.043832900052895   0.013019794115812   0.185139480892596
   0.543832900052895   0.013019794115812   0.185139480892596
   0.043832900052895   0.513019794115811   0.185139480892596
   0.543832900052895   0.513019794115811   0.185139480892596
   0.043832900052895   0.013019794115812   0.685139480892596
   0.543832900052895   0.013019794115812   0.685139480892596
   0.043832900052895   0.513019794115811   0.685139480892596
   0.543832900052895   0.513019794115811   0.685139480892596
   0.058661280504167   0.077727964912672   0.141492255265957
   0.558661280504167   0.077727964912672   0.141492255265957
   0.058661280504167   0.577727964912672   0.141492255265957
   0.558661280504167   0.577727964912672   0.141492255265957
   0.058661280504167   0.077727964912672   0.641492255265957
   0.558661280504167   0.077727964912672   0.641492255265957
   0.058661280504167   0.577727964912672   0.641492255265957
   0.558661280504167   0.577727964912672   0.641492255265957
   0.029539597819620   0.040871934587551   0.070238042969901
   0.529539597819620   0.040871934587551   0.070238042969901
   0.029539597819620   0.540871934587551   0.070238042969901
   0.529539597819620   0.540871934587551   0.070238042969901
   0.029539597819620   0.040871934587551   0.570238042969901
   0.529539597819620   0.040871934587551   0.570238042969901
   0.029539597819620   0.540871934587551   0.570238042969901
   0.529539597819620   0.540871934587551   0.570238042969901
   0.042943784922029   0.105380138148204   0.024137726071171
   0.542943784922029   0.105380138148204   0.024137726071171
   0.042943784922029   0.605380138148204   0.024137726071171
   0.542943784922029   0.605380138148204   0.024137726071171
   0.042943784922029   0.105380138148204   0.524137726071171
   0.542943784922029   0.105380138148204   0.524137726071171
   0.042943784922029   0.605380138148204   0.524137726071171
   0.542943784922029   0.605380138148204   0.524137726071171
   0.485252570280002   0.432584250101067   0.045335384170190
   0.985252570280002   0.432584250101067   0.045335384170190
   0.485252570280002   0.932584250101067   0.045335384170190
   0.985252570280002   0.932584250101067   0.045335384170190
   0.485252570280002   0.432584250101067   0.545335384170190
   0.985252570280002   0.432584250101067   0.545335384170190
   0.485252570280002   0.932584250101067   0.545335384170190
   0.985252570280002   0.932584250101067   0.545335384170190
   0.471448414796298   0.367986313859736   0.092627345096440
   0.971448414796298   0.367986313859736   0.092627345096440
   0.471448414796298   0.867986313859736   0.092627345096440
   0.971448414796298   0.867986313859736   0.092627345096440
   0.471448414796298   0.367986313859736   0.592627345096440
   0.971448414796298   0.367986313859736   0.592627345096440
   0.471448414796298   0.867986313859736   0.592627345096440
   0.971448414796298   0.867986313859736   0.592627345096440
   0.499318435992026   0.407029616707466   0.160274995705613
   0.999318435992026   0.407029616707466   0.160274995705613
   0.499318435992026   0.907029616707466   0.160274995705613
   0.999318435992026   0.907029616707466   0.160274995705613
   0.499318435992026   0.407029616707466   0.660274995705613
   0.999318435992026   0.407029616707466   0.660274995705613
   0.499318435992026   0.907029616707466   0.660274995705613
   0.999318435992026   0.907029616707466   0.660274995705613
   0.014747429358072   0.067415750424770   0.454664614513562
   0.514747429358072   0.067415750424770   0.454664614513562
   0.014747429358072   0.567415750424770   0.454664614513562
   0.514747429358072   0.567415750424770   0.454664614513562
   0.014747429358072   0.067415750424770   0.954664614513562
   0.514747429358072   0.067415750424770   0.954664614513562
   0.014747429358072   0.567415750424770   0.954664614513562
   0.514747429358072   0.567415750424770   0.954664614513562
   0.457056214838597   0.394619862069990   0.475862272924953
   0.957056214838597   0.394619862069990   0.475862272924953
   0.457056214838597   0.894619862069990   0.475862272924953
   0.957056214838597   0.894619862069990   0.475862272924953
   0.457056214838597   0.394619862069990   0.975862272924953
   0.957056214838597   0.394619862069990   0.975862272924953
   0.457056214838597   0.894619862069990   0.975862272924953
   0.957056214838597   0.894619862069990   0.975862272924953
   0.470460401873561   0.459128065691188   0.429761955887024
   0.970460401873561   0.459128065691188   0.429761955887024
   0.470460401873561   0.959128065691188   0.429761955887024
   0.970460401873561   0.959128065691188   0.429761955887024
   0.470460401873561   0.459128065691188   0.929761955887024
   0.970460401873561   0.459128065691188   0.929761955887024
   0.470460401873561   0.959128065691188   0.929761955887024
   0.970460401873561   0.959128065691188   0.929761955887024
   0.028551585287851   0.132013686615425   0.407372654136309
   0.528551585287851   0.132013686615425   0.407372654136309
   0.028551585287851   0.632013686615425   0.407372654136309
   0.528551585287851   0.632013686615425   0.407372654136309
   0.028551585287851   0.132013686615425   0.907372654136309
   0.528551585287851   0.132013686615425   0.907372654136309
   0.028551585287851   0.632013686615425   0.907372654136309
   0.528551585287851   0.632013686615425   0.907372654136309
   0.441338719358553   0.422272035293563   0.358507743695528
   0.941338719358553   0.422272035293563   0.358507743695528
   0.441338719358553   0.922272035293563   0.358507743695528
   0.941338719358553   0.922272035293563   0.358507743695528
   0.441338719358553   0.422272035293563   0.858507743695528
   0.941338719358553   0.422272035293563   0.858507743695528
   0.441338719358553   0.922272035293563   0.858507743695528
   0.941338719358553   0.922272035293563   0.858507743695528
   0.000681564007977   0.092970383298549   0.339725003298750
   0.500681564007977   0.092970383298549   0.339725003298750
   0.000681564007977   0.592970383298549   0.339725003298750
   0.500681564007977   0.592970383298549   0.339725003298750
   0.000681564007977   0.092970383298549   0.839725003298750
   0.500681564007977   0.092970383298549   0.839725003298750
   0.000681564007977   0.592970383298549   0.839725003298750
   0.500681564007977   0.592970383298549   0.839725003298750
   0.456167100000464   0.486980205884188   0.314860518281768
   0.956167100000464   0.486980205884188   0.314860518281768
   0.456167100000464   0.986980205884189   0.314860518281768
   0.956167100000464   0.986980205884189   0.314860518281768
   0.456167100000464   0.486980205884188   0.814860518281768
   0.956167100000464   0.486980205884188   0.814860518281768
   0.456167100000464   0.986980205884189   0.814860518281768
   0.956167100000464   0.986980205884189   0.814860518281768
   0.206167070416193   0.263019851479163   0.314860504716857
   0.706167070416193   0.263019851479163   0.314860504716857
   0.206167070416193   0.763019851479163   0.314860504716857
   0.706167070416193   0.763019851479163   0.314860504716857
   0.206167070416193   0.263019851479163   0.814860504716857
   0.706167070416193   0.263019851479163   0.814860504716857
   0.206167070416193   0.763019851479163   0.814860504716857
   0.706167070416193   0.763019851479163   0.814860504716857
   0.293832929364754   0.236980150438464   0.185139494841885
   0.793832929364754   0.236980150438464   0.185139494841885
   0.293832929364754   0.736980150438464   0.185139494841885
   0.793832929364754   0.736980150438464   0.185139494841885
   0.293832929364754   0.236980150438464   0.685139494841886
   0.793832929364754   0.236980150438464   0.685139494841886
   0.293832929364754   0.736980150438464   0.685139494841886
   0.793832929364754   0.736980150438464   0.685139494841886
   0.191338726331410   0.327728021505309   0.358507751633761
   0.691338726331410   0.327728021505309   0.358507751633761
   0.191338726331410   0.827728021505309   0.358507751633761
   0.691338726331410   0.827728021505309   0.358507751633761
   0.191338726331410   0.327728021505309   0.858507751633761
   0.691338726331410   0.327728021505309   0.858507751633761
   0.191338726331410   0.827728021505309   0.858507751633761
   0.691338726331410   0.827728021505309   0.858507751633761
   0.308661273881873   0.172271981291217   0.141492248178336
   0.808661273881873   0.172271981291217   0.141492248178336
   0.308661273881873   0.672271981291217   0.141492248178336
   0.808661273881873   0.672271981291217   0.141492248178336
   0.308661273881873   0.172271981291217   0.641492248178336
   0.808661273881873   0.172271981291217   0.641492248178336
   0.308661273881873   0.672271981291217   0.641492248178336
   0.808661273881873   0.672271981291217   0.641492248178336
   0.220460413216736   0.290871981506116   0.429761975999980
   0.720460413216736   0.290871981506116   0.429761975999980
   0.220460413216736   0.790871981506116   0.429761975999980
   0.720460413216736   0.790871981506116   0.429761975999980
   0.220460413216736   0.290871981506116   0.929761975999980
   0.720460413216736   0.290871981506116   0.929761975999980
   0.220460413216736   0.790871981506116   0.929761975999980
   0.720460413216736   0.790871981506116   0.929761975999980
   0.279539587352171   0.209128021671562   0.070238023748772
   0.779539587352171   0.209128021671562   0.070238023748772
   0.279539587352171   0.709128021671562   0.070238023748772
   0.779539587352171   0.709128021671562   0.070238023748772
   0.279539587352171   0.209128021671562   0.570238023748772
   0.779539587352171   0.209128021671562   0.570238023748772
   0.279539587352171   0.709128021671562   0.570238023748772
   0.779539587352171   0.709128021671562   0.570238023748772
   0.207056246242202   0.355380155064510   0.475862305969979
   0.707056246242202   0.355380155064510   0.475862305969979
   0.207056246242202   0.855380155064510   0.475862305969979
   0.707056246242202   0.855380155064510   0.475862305969979
   0.207056246242202   0.355380155064510   0.975862305969979
   0.707056246242202   0.355380155064510   0.975862305969979
   0.207056246242202   0.855380155064510   0.975862305969979
   0.707056246242202   0.855380155064510   0.975862305969979
   0.292943754210876   0.144619847936563   0.024137694030021
   0.792943754210876   0.144619847936563   0.024137694030021
   0.292943754210876   0.644619847936563   0.024137694030021
   0.792943754210876   0.644619847936563   0.024137694030021
   0.292943754210876   0.144619847936563   0.524137694030021
   0.792943754210876   0.144619847936563   0.524137694030021
   0.292943754210876   0.644619847936563   0.524137694030021
   0.792943754210876   0.644619847936563   0.524137694030021
   0.264747418513847   0.182584280088642   0.454664605066310
   0.764747418513847   0.182584280088642   0.454664605066310
   0.264747418513847   0.682584280088642   0.454664605066310
   0.764747418513847   0.682584280088642   0.454664605066310
   0.264747418513847   0.182584280088642   0.954664605066310
   0.764747418513847   0.182584280088642   0.954664605066310
   0.264747418513847   0.682584280088642   0.954664605066310
   0.764747418513847   0.682584280088642   0.954664605066310
   0.235252582264062   0.317415722873245   0.045335394917422
   0.735252582264062   0.317415722873245   0.045335394917422
   0.235252582264062   0.817415722873245   0.045335394917422
   0.735252582264062   0.817415722873245   0.045335394917422
   0.235252582264062   0.317415722873245   0.545335394917422
   0.735252582264062   0.317415722873245   0.545335394917422
   0.235252582264062   0.817415722873245   0.545335394917422
   0.735252582264062   0.817415722873245   0.545335394917422
   0.278551535297390   0.117986336165303   0.407372624211187
   0.778551535297390   0.117986336165303   0.407372624211187
   0.278551535297390   0.617986336165303   0.407372624211187
   0.778551535297390   0.617986336165303   0.407372624211187
   0.278551535297390   0.117986336165303   0.907372624211187
   0.778551535297390   0.117986336165303   0.907372624211187
   0.278551535297390   0.617986336165303   0.907372624211187
   0.778551535297390   0.617986336165303   0.907372624211187
   0.221448464794224   0.382013666229464   0.092627375475968
   0.721448464794224   0.382013666229464   0.092627375475968
   0.221448464794224   0.882013666229464   0.092627375475968
   0.721448464794224   0.882013666229464   0.092627375475968
   0.221448464794224   0.382013666229464   0.592627375475968
   0.721448464794224   0.382013666229464   0.592627375475968
   0.221448464794224   0.882013666229464   0.592627375475968
   0.721448464794224   0.882013666229464   0.592627375475968
   0.250681502641986   0.157029666468156   0.339724969142349
   0.750681502641986   0.157029666468156   0.339724969142349
   0.250681502641986   0.657029666468156   0.339724969142349
   0.750681502641986   0.657029666468156   0.339724969142349
   0.250681502641986   0.157029666468156   0.839724969142349
   0.750681502641986   0.157029666468156   0.839724969142349
   0.250681502641986   0.657029666468156   0.839724969142349
   0.750681502641986   0.657029666468156   0.839724969142349
   0.249318497250196   0.342970335520337   0.160275030743122
   0.749318497250196   0.342970335520337   0.160275030743122
   0.249318497250196   0.842970335520337   0.160275030743122
   0.749318497250196   0.842970335520337   0.160275030743122
   0.249318497250196   0.342970335520337   0.660275030743122
   0.749318497250196   0.342970335520337   0.660275030743122
   0.249318497250196   0.842970335520337   0.660275030743122
   0.749318497250196   0.842970335520337   0.660275030743122
   0.066331176573169   0.042398450821700   0.238887946732726
   0.566331176573169   0.042398450821700   0.238887946732726
   0.066331176573169   0.542398450821700   0.238887946732726
   0.566331176573169   0.542398450821700   0.238887946732726
   0.066331176573169   0.042398450821700   0.738887946732726
   0.566331176573169   0.042398450821700   0.738887946732726
   0.066331176573169   0.542398450821700   0.738887946732726
   0.566331176573169   0.542398450821700   0.738887946732726
   0.092296044533040   0.158305514662547   0.160189358462444
   0.592296044533040   0.158305514662547   0.160189358462444
   0.092296044533040   0.658305514662547   0.160189358462444
   0.592296044533040   0.658305514662547   0.160189358462444
   0.092296044533040   0.158305514662547   0.660189358462444
   0.592296044533040   0.158305514662547   0.660189358462444
   0.092296044533040   0.658305514662547   0.660189358462444
   0.592296044533040   0.658305514662547   0.660189358462444
   0.076424351018624   0.186149071388015   0.042808470817895
   0.576424351018624   0.186149071388015   0.042808470817895
   0.076424351018624   0.686149071388015   0.042808470817895
   0.576424351018624   0.686149071388015   0.042808470817895
   0.076424351018624   0.186149071388015   0.542808470817895
   0.576424351018624   0.186149071388015   0.542808470817895
   0.076424351018624   0.686149071388015   0.542808470817895
   0.576424351018624   0.686149071388015   0.542808470817895
   0.438395386461997   0.287275452198043   0.074027293259466
   0.938395386461997   0.287275452198043   0.074027293259466
   0.438395386461997   0.787275452198043   0.074027293259466
   0.938395386461997   0.787275452198043   0.074027293259466
   0.438395386461997   0.287275452198043   0.574027293259466
   0.938395386461997   0.287275452198043   0.574027293259466
   0.438395386461997   0.787275452198043   0.574027293259466
   0.938395386461997   0.787275452198043   0.574027293259466
   0.487898055600635   0.356858004976861   0.195196525557447
   0.987898055600635   0.356858004976861   0.195196525557447
   0.487898055600635   0.856858004976861   0.195196525557447
   0.987898055600635   0.856858004976861   0.195196525557447
   0.487898055600635   0.356858004976861   0.695196525557447
   0.987898055600635   0.356858004976861   0.695196525557447
   0.487898055600635   0.856858004976861   0.695196525557447
   0.987898055600635   0.856858004976861   0.695196525557447
   0.423575648460982   0.313850929141258   0.457191527960334
   0.923575648460982   0.313850929141258   0.457191527960334
   0.423575648460982   0.813850929141258   0.457191527960334
   0.923575648460982   0.813850929141258   0.457191527960334
   0.423575648460982   0.313850929141258   0.957191527960334
   0.923575648460982   0.313850929141258   0.957191527960334
   0.423575648460982   0.813850929141258   0.957191527960334
   0.923575648460982   0.813850929141258   0.957191527960334
   0.061604613365930   0.212724547934438   0.425972705678159
   0.561604613365930   0.212724547934438   0.425972705678159
   0.061604613365930   0.712724547934438   0.425972705678159
   0.561604613365930   0.712724547934438   0.425972705678159
   0.061604613365930   0.212724547934438   0.925972705678159
   0.561604613365930   0.212724547934438   0.925972705678159
   0.061604613365930   0.712724547934438   0.925972705678159
   0.561604613365930   0.712724547934438   0.925972705678159
   0.407703955333314   0.341694485609548   0.339810640500682
   0.907703955333314   0.341694485609548   0.339810640500682
   0.407703955333314   0.841694485609548   0.339810640500682
   0.907703955333314   0.841694485609548   0.339810640500682
   0.407703955333314   0.341694485609548   0.839810640500682
   0.907703955333314   0.341694485609548   0.839810640500682
   0.407703955333314   0.841694485609548   0.839810640500682
   0.907703955333314   0.841694485609548   0.839810640500682
   0.012101944707371   0.143141994979320   0.304803473497137
   0.512101944707371   0.143141994979320   0.304803473497137
   0.012101944707371   0.643141994979320   0.304803473497137
   0.512101944707371   0.643141994979320   0.304803473497137
   0.012101944707371   0.143141994979320   0.804803473497137
   0.512101944707371   0.143141994979320   0.804803473497137
   0.012101944707371   0.643141994979320   0.804803473497137
   0.512101944707371   0.643141994979320   0.804803473497137
   0.433668823845788   0.457601549165926   0.261112052403854
   0.933668823845788   0.457601549165926   0.261112052403854
   0.433668823845788   0.957601549165926   0.261112052403854
   0.933668823845788   0.957601549165926   0.261112052403854
   0.433668823845788   0.457601549165926   0.761112052403854
   0.933668823845788   0.457601549165926   0.761112052403854
   0.433668823845788   0.957601549165926   0.761112052403854
   0.933668823845788   0.957601549165926   0.761112052403854
   0.183668779937946   0.292398526814899   0.261112041747959
   0.683668779937946   0.292398526814899   0.261112041747959
   0.183668779937946   0.792398526814899   0.261112041747959
   0.683668779937946   0.792398526814899   0.261112041747959
   0.183668779937946   0.292398526814899   0.761112041747959
   0.683668779937946   0.292398526814899   0.761112041747959
   0.183668779937946   0.792398526814899   0.761112041747959
   0.683668779937946   0.792398526814899   0.761112041747959
   0.316331219738786   0.207601475014944   0.238887957827236
   0.816331219738786   0.207601475014944   0.238887957827236
   0.316331219738786   0.707601475014944   0.238887957827236
   0.816331219738786   0.707601475014944   0.238887957827236
   0.316331219738786   0.207601475014944   0.738887957827236
   0.816331219738786   0.207601475014944   0.738887957827236
   0.316331219738786   0.707601475014944   0.738887957827236
   0.816331219738786   0.707601475014944   0.738887957827236
   0.157703962430041   0.408305575004952   0.339810668480250
   0.657703962430041   0.408305575004952   0.339810668480250
   0.157703962430041   0.908305575004952   0.339810668480250
   0.657703962430041   0.908305575004952   0.339810668480250
   0.157703962430041   0.408305575004952   0.839810668480250
   0.657703962430041   0.408305575004952   0.839810668480250
   0.157703962430041   0.908305575004952   0.839810668480250
   0.657703962430041   0.908305575004952   0.839810668480250
   0.342296038161639   0.091694427336073   0.160189331233089
   0.842296038161639   0.091694427336073   0.160189331233089
   0.342296038161639   0.591694427336073   0.160189331233089
   0.842296038161639   0.591694427336073   0.160189331233089
   0.342296038161639   0.091694427336073   0.660189331233089
   0.842296038161639   0.091694427336073   0.660189331233089
   0.342296038161639   0.591694427336073   0.660189331233089
   0.842296038161639   0.591694427336073   0.660189331233089
   0.173575674056891   0.436149093158539   0.457191572610992
   0.673575674056891   0.436149093158539   0.457191572610992
   0.173575674056891   0.936149093158539   0.457191572610992
   0.673575674056891   0.936149093158539   0.457191572610992
   0.173575674056891   0.436149093158539   0.957191572610992
   0.673575674056891   0.436149093158539   0.957191572610992
   0.173575674056891   0.936149093158539   0.957191572610992
   0.673575674056891   0.936149093158539   0.957191572610992
   0.326424326300778   0.063850909714775   0.042808427237154
   0.826424326300778   0.063850909714775   0.042808427237154
   0.326424326300778   0.563850909714775   0.042808427237154
   0.826424326300778   0.563850909714775   0.042808427237154
   0.326424326300778   0.063850909714775   0.542808427237154
   0.826424326300778   0.063850909714775   0.542808427237154
   0.326424326300778   0.563850909714775   0.542808427237154
   0.826424326300778   0.563850909714775   0.542808427237154
   0.311604571594775   0.037275473002148   0.425972680369838
   0.811604571594775   0.037275473002148   0.425972680369838
   0.311604571594775   0.537275473002148   0.425972680369838
   0.811604571594775   0.537275473002148   0.425972680369838
   0.311604571594775   0.037275473002148   0.925972680369838
   0.811604571594775   0.037275473002148   0.925972680369838
   0.311604571594775   0.537275473002148   0.925972680369838
   0.811604571594775   0.537275473002148   0.925972680369838
   0.188395428663585   0.462724529669674   0.074027319773102
   0.688395428663585   0.462724529669674   0.074027319773102
   0.188395428663585   0.962724529669674   0.074027319773102
   0.688395428663585   0.962724529669674   0.074027319773102
   0.188395428663585   0.462724529669674   0.574027319773102
   0.688395428663585   0.462724529669674   0.574027319773102
   0.188395428663585   0.962724529669674   0.574027319773102
   0.688395428663585   0.962724529669674   0.574027319773102
   0.262101880623710   0.106858043628755   0.304803439036606
   0.762101880623710   0.106858043628755   0.304803439036606
   0.262101880623710   0.606858043628755   0.304803439036606
   0.762101880623710   0.606858043628755   0.304803439036606
   0.262101880623710   0.106858043628755   0.804803439036606
   0.762101880623710   0.106858043628755   0.804803439036606
   0.262101880623710   0.606858043628755   0.804803439036606
   0.762101880623710   0.606858043628755   0.804803439036606
   0.237898118936688   0.393141958107129   0.195196560690879
   0.737898118936688   0.393141958107129   0.195196560690879
   0.237898118936688   0.893141958107129   0.195196560690879
   0.737898118936688   0.893141958107129   0.195196560690879
   0.237898118936688   0.393141958107129   0.695196560690879
   0.737898118936688   0.393141958107129   0.695196560690879
   0.237898118936688   0.893141958107129   0.695196560690879
   0.737898118936688   0.893141958107129   0.695196560690879
