 C  H  N  O 
 1.0000000000000000
    15.6921999999999997    0.0000000000000000   -6.2728000000000002
     0.0000000000000000   12.3759999999999994    0.0000000000000000
     0.6754000000000007    0.0000000000000000   18.8184000000000005
 C   H   N   O  
 128 128  64  64
Cartesian
  1.7822562183790378  2.5942975770548955  0.0057431285274153
  8.2786279577376725  9.7817000420545348  3.1306400343731213
  2.3094759501593325  8.7821781688793372  3.1307029848936914
  7.7514223694027677  3.5938192156985815  0.0056970151063078
  2.0843539242947067  0.1427792052271312  0.1120380373066063
  7.9765418513333124 12.2332207947728691  3.0243710580021474
  2.0075332475004659  6.3307035237121614  3.0242218792706597
  8.0533475677443285  6.0453038762077194  0.1121864471068394
  3.4942791765996639  0.3492631212127639  0.2530385586123519
  6.5666149927515889 12.0267434954345145  2.8833638735500586
  0.5975983116514643  6.5370884809771237  2.8832488214439063
  9.4632867368373876  5.8389183221984533  0.2531640156595651
  3.9770864788375397  1.6233207308995632  0.2559110447037718
  6.0838021479371376 10.7526900890778752  2.8804758230173211
  0.1146687964459765  7.8110951947439524  2.8804065666413359
  9.9462203355479542  4.5649153190118863  0.2559894154682951
 15.5973562183790353  2.5942975770548955 -3.1306568714725849
  6.4015279577376694  9.7817000420545348  6.2670400343731210
  0.4323759501593314  8.7821781688793372  6.2671029848936914
  5.8743223694027691  3.5938192156985815  3.1420970151063079
  0.2072539242947070  0.1427792052271312  3.2484380373066060
  6.0994418513333146 12.2332207947728691  6.1607710580021466
 15.8226332475004643  6.3307035237121614 -0.1121781207293398
  6.1762475677443263  6.0453038762077194  3.2485864471068382
  1.6171791765996608  0.3492631212127639  3.3894385586123521
  4.6895149927515876 12.0267434954345145  6.0197638735500583
 14.4126983116514644  6.5370884809771237 -0.2531511785560931
  7.5861867368373872  5.8389183221984533  3.3895640156595657
  2.0999864788375384  1.6233207308995632  3.3923110447037721
  4.2067021479371354 10.7526900890778752  6.0168758230173207
 13.9297687964459733  7.8110951947439524 -0.2559934333586630
  8.0691203355479537  4.5649153190118863  3.3923894154682950
 13.7202562183790366  2.5942975770548955  0.0057431285274146
  4.5244279577376734  9.7817000420545348  9.4034400343731175
 14.2474759501593322  8.7821781688793372  3.1307029848936905
  3.9972223694027691  3.5938192156985815  6.2784970151063062
 14.0223539242947055  0.1427792052271312  0.1120380373066071
  4.2223418513333151 12.2332207947728691  9.2971710580021458
 13.9455332475004656  6.3307035237121614  3.0242218792706597
  4.2991475677443258  6.0453038762077194  6.3849864471068383
 15.4322791765996623  0.3492631212127639  0.2530385586123519
  2.8124149927515911 12.0267434954345145  9.1561638735500566
 12.5355983116514658  6.5370884809771237  2.8832488214439054
  5.7090867368373903  5.8389183221984533  6.5259640156595644
 15.9150864788375390  1.6233207308995632  0.2559110447037715
  2.3296021479371354 10.7526900890778752  9.1532758230173208
 12.0526687964459747  7.8110951947439524  2.8804065666413359
  6.1920203355479533  4.5649153190118863  6.5287894154682951
 11.8431562183790362  2.5942975770548955  3.1421431285274153
  2.6473279577376729  9.7817000420545348 12.5398400343731193
 12.3703759501593300  8.7821781688793372  6.2671029848936897
  2.1201223694027660  3.5938192156985815  9.4148970151063072
 12.1452539242947068  0.1427792052271312  3.2484380373066055
  2.3452418513333120 12.2332207947728691 12.4335710580021477
 12.0684332475004634  6.3307035237121614  6.1606218792706597
  2.4220475677443294  6.0453038762077194  9.5213864471068383
 13.5551791765996619  0.3492631212127639  3.3894385586123525
  0.9353149927515879 12.0267434954345145 12.2925638735500584
 10.6584983116514653  6.5370884809771237  6.0196488214439050
  3.8319867368373872  5.8389183221984533  9.6623640156595645
 14.0379864788375386  1.6233207308995632  3.3923110447037721
  0.4525021479371391 10.7526900890778752 12.2896758230173191
 10.1755687964459742  7.8110951947439524  6.0168065666413337
  4.3149203355479537  4.5649153190118863  9.6651894154682925
  9.9660562183790358  2.5942975770548955  6.2785431285274127
  0.7702279577376732  9.7817000420545348 15.6762400343731194
 10.4932759501593313  8.7821781688793372  9.4035029848936897
 15.9352223694027675  3.5938192156985815  6.2784970151063062
 10.2681539242947064  0.1427792052271312  6.3848380373066060
 16.1603418513333104 12.2332207947728691  9.2971710580021494
 10.1913332475004665  6.3307035237121614  9.2970218792706589
  0.5449475677443297  6.0453038762077194 12.6577864471068384
 11.6780791765996614  0.3492631212127639  6.5258385586123522
 14.7504149927515869 12.0267434954345145  9.1561638735500601
  8.7813983116514649  6.5370884809771237  9.1560488214439069
  1.9548867368373875  5.8389183221984533 12.7987640156595610
 12.1608864788375381  1.6233207308995632  6.5287110447037717
 14.2676021479371382 10.7526900890778752  9.1532758230173190
  8.2984687964459756  7.8110951947439524  9.1532065666413338
  2.4378203355479542  4.5649153190118863 12.8015894154682925
  8.0889562183790389  2.5942975770548955  9.4149431285274119
 14.5853279577376700  9.7817000420545348 12.5398400343731193
  8.6161759501593327  8.7821781688793372 12.5399029848936898
 14.0581223694027670  3.5938192156985815  9.4148970151063089
  8.3910539242947042  0.1427792052271312  9.5212380373066043
 14.2832418513333117 12.2332207947728691 12.4335710580021459
  8.3142332475004643  6.3307035237121614 12.4334218792706590
 14.3600475677443260  6.0453038762077194  9.5213864471068383
  9.8009791765996628  0.3492631212127639  9.6622385586123531
 12.8733149927515864 12.0267434954345145 12.2925638735500566
  6.9042983116514636  6.5370884809771237 12.2924488214439034
 15.7699867368373869  5.8389183221984533  9.6623640156595645
 10.2837864788375395  1.6233207308995632  9.6651110447037727
 12.3905021479371378 10.7526900890778752 12.2896758230173191
  6.4213687964459769  7.8110951947439524 12.2896065666413357
 16.2529203355479552  4.5649153190118863  9.6651894154682942
  6.2118562183790376  2.5942975770548955 12.5513431285274155
 12.0328279577376716  9.7817000420545348 -3.1421599656268824
  6.7390759501593323  8.7821781688793372 15.6763029848936899
 12.1810223694027666  3.5938192156985815 12.5512970151063072
  6.5139539242947064  0.1427792052271312 12.6576380373066044
 11.7307418513333115 12.2332207947728691 -3.2484289419978540
  6.4371332475004657  6.3307035237121614 15.5698218792706591
 12.4829475677443273  6.0453038762077194 12.6577864471068402
  7.9238791765996632  0.3492631212127639 12.7986385586123514
 10.3208149927515880 12.0267434954345145 -3.3894361264499429
  5.0271983116514640  6.5370884809771237 15.4288488214439035
 13.8928867368373883  5.8389183221984533 12.7987640156595646
  8.4066864788375408  1.6233207308995632 12.8015110447037692
  9.8380021479371376 10.7526900890778752 -3.3923241769826822
  4.5442687964459765  7.8110951947439524 15.4260065666413357
 14.3758203355479548  4.5649153190118863 12.8015894154682943
  4.3347562183790380  2.5942975770548955 15.6877431285274138
 10.1557279577376711  9.7817000420545348 -0.0057599656268830
  4.1865759501593329  8.7821781688793372 -0.0056970151063077
  9.6285223694027682  3.5938192156985815 -3.1307029848936914
  4.6368539242947060  0.1427792052271312 15.7940380373066045
  9.8536418513333128 12.2332207947728691 -0.1120289419978546
  3.8846332475004659  6.3307035237121614 -0.1121781207293402
  9.9304475677443254  6.0453038762077194 -3.0242135528931620
  6.0467791765996637  0.3492631212127639 15.9350385586123497
  8.4437149927515875 12.0267434954345145 -0.2530361264499433
  2.4746983116514638  6.5370884809771237 -0.2531511785560909
 11.3403867368373881  5.8389183221984533 -2.8832359843404380
  6.5295864788375395  1.6233207308995632 15.9379110447037711
  7.9609021479371371 10.7526900890778752 -0.2559241769826779
  1.9917687964459760  7.8110951947439524 -0.2559934333586675
 11.8233203355479528  4.5649153190118863 -2.8804105845317038
  5.0360150052448400  1.8608694349655346  0.3406735208945113
  5.0248717477694322 10.5151490707460464  2.7957068376374163
 14.7479340322645704  8.0485901881207873 -3.4771269041617634
 11.0051546246222962  4.3274241361213486  0.3407188307261013
  3.5580047182429264  3.6646887761066074  0.0918398948851010
  6.5028715842093989  8.7113235219210203  3.0445412050177647
  0.5337024622759985  9.8524608938775611  3.0444893822317187
  9.5271965187254928  2.5235448694468299  0.0919120166657759
 14.0944889959438182  1.1809449092141144 -3.2136011842906496
 11.6586046822200835 11.1950419781106287  0.0772117472903535
  5.6895499480153173  7.3689342090261105  0.0772216362176614
  4.3713392253573682  5.0070605375275594  3.0591865360694426
  4.1480320636984205 11.8604370546608564  0.3301160432924662
  5.9128699686305000  0.5155738769995035  2.8062893060166831
 15.6360634662201896  5.6722168580155943 -3.4666594516963141
 10.1170188561282899  6.7037913976012176  0.3302670383398405
  3.1589150052448396  1.8608694349655346  3.4770735208945118
  3.1477717477694322 10.5151490707460464  5.9321068376374164
 12.8708340322645682  8.0485901881207873 -0.3407269041617620
  9.1280546246222940  4.3274241361213486  3.4771188307261007
  1.6809047182429224  3.6646887761066074  3.2282398948851023
  4.6257715842093976  8.7113235219210203  6.1809412050177643
 14.3488024622759962  9.8524608938775611 -0.0919106177682810
  7.6500965187254897  2.5235448694468299  3.2283120166657753
 12.2173889959438160  1.1809449092141144 -0.0772011842906507
  9.7815046822200795 11.1950419781106287  3.2136117472903538
  3.8124499480153151  7.3689342090261105  3.2136216362176611
  2.4942392253573655  5.0070605375275594  6.1955865360694444
  2.2709320636984192 11.8604370546608564  3.4665160432924669
  4.0357699686304986  0.5155738769995035  5.9426893060166828
 13.7589634662201874  5.6722168580155943 -0.3302594516963140
  8.2399188561282894  6.7037913976012176  3.4666670383398426
  1.2818150052448434  1.8608694349655346  6.6134735208945088
  1.2706717477694323 10.5151490707460464  9.0685068376374165
 10.9937340322645696  8.0485901881207873  2.7956730958382376
  7.2509546246222927  4.3274241361213486  6.6135188307261012
 15.4960047182429257  3.6646887761066074  0.0918398948851008
  2.7486715842094007  8.7113235219210203  9.3173412050177635
 12.4717024622759975  9.8524608938775611  3.0444893822317178
  5.7729965187254928  2.5235448694468299  6.3647120166657745
 10.3402889959438173  1.1809449092141144  3.0591988157093488
  7.9044046822200817 11.1950419781106287  6.3500117472903534
  1.9353499480153189  7.3689342090261105  6.3500216362176589
  0.6171392253573695  5.0070605375275594  9.3319865360694418
  0.3938320636984231 11.8604370546608564  6.6029160432924652
  2.1586699686304991  0.5155738769995035  9.0790893060166820
 11.8818634662201887  5.6722168580155943  2.8061405483036856
  6.3628188561282908  6.7037913976012176  6.6030670383398418
 15.0969150052448402  1.8608694349655346  3.4770735208945096
 15.0857717477694298 10.5151490707460464  5.9321068376374173
  9.1166340322645709  8.0485901881207873  5.9320730958382359
  5.3738546246222967  4.3274241361213486  9.7499188307261004
 13.6189047182429253  3.6646887761066074  3.2282398948851014
  0.8715715842093973  8.7113235219210203 12.4537412050177618
 10.5946024622759971  9.8524608938775611  6.1808893822317188
  3.8958965187254928  2.5235448694468299  9.5011120166657737
  8.4631889959438169  1.1809449092141144  6.1955988157093493
  6.0273046822200849 11.1950419781106287  9.4864117472903526
 15.7504499480153175  7.3689342090261105  3.2136216362176606
 14.4322392253573657  5.0070605375275594  6.1955865360694427
 14.2089320636984180 11.8604370546608564  3.4665160432924651
 15.9737699686304975  0.5155738769995035  5.9426893060166828
 10.0047634662201883  5.6722168580155943  5.9425405483036826
  4.4857188561282912  6.7037913976012176  9.7394670383398392
 13.2198150052448380  1.8608694349655346  6.6134735208945079
 13.2086717477694311 10.5151490707460464  9.0685068376374183
  7.2395340322645687  8.0485901881207873  9.0684730958382378
  3.4967546246222967  4.3274241361213486 12.8863188307261005
 11.7418047182429248  3.6646887761066074  6.3646398948851033
 14.6866715842093978  8.7113235219210203  9.3173412050177653
  8.7175024622759967  9.8524608938775611  9.3172893822317171
  2.0187965187254968  2.5235448694468299 12.6375120166657737
  6.5860889959438182  1.1809449092141144  9.3319988157093494
  4.1502046822200818 11.1950419781106287 12.6228117472903545
 13.8733499480153153  7.3689342090261105  6.3500216362176598
 12.5551392253573635  5.0070605375275594  9.3319865360694436
 12.3318320636984193 11.8604370546608564  6.6029160432924643
 14.0966699686304988  0.5155738769995035  9.0790893060166820
  8.1276634662201879  5.6722168580155943  9.0789405483036845
  2.6086188561282881  6.7037913976012176 12.8758670383398393
 11.3427150052448393  1.8608694349655346  9.7498735208945106
 11.3315717477694307 10.5151490707460464 12.2049068376374148
  5.3624340322645692  8.0485901881207873 12.2048730958382361
  1.6196546246222969  4.3274241361213486 16.0227188307261024
  9.8647047182429244  3.6646887761066074  9.5010398948850998
 12.8095715842094009  8.7113235219210203 12.4537412050177636
  6.8404024622759980  9.8524608938775611 12.4536893822317172
 15.8338965187254903  2.5235448694468299  9.5011120166657772
  4.7089889959438187  1.1809449092141144 12.4683988157093495
  2.2731046822200822 11.1950419781106287 15.7592117472903528
 11.9962499480153166  7.3689342090261105  9.4864216362176599
 10.6780392253573648  5.0070605375275594 12.4683865360694401
 10.4547320636984189 11.8604370546608564  9.7393160432924653
 12.2195699686304984  0.5155738769995035 12.2154893060166820
  6.2505634662201883  5.6722168580155943 12.2153405483036845
  0.7315188561282884  6.7037913976012176 16.0122670383398393
  9.4656150052448425  1.8608694349655346 12.8862735208945089
  8.7790717477694304 10.5151490707460464 -3.4770931623625825
  3.4853340322645705  8.0485901881207873 15.3412730958382379
 15.4347546246222969  4.3274241361213486 12.8863188307260970
  7.9876047182429266  3.6646887761066074 12.6374398948850999
 10.2570715842093989  8.7113235219210203 -3.2282587949822377
  4.9633024622759985  9.8524608938775611 15.5900893822317155
 13.9567965187254917  2.5235448694468299 12.6375120166657773
  2.8318889959438187  1.1809449092141144 15.6047988157093496
 16.0882046822200842 11.1950419781106287 12.6228117472903509
 10.1191499480153198  7.3689342090261105 12.6228216362176600
  8.1255392253573664  5.0070605375275594 -3.2136134639305589
  8.5776320636984202 11.8604370546608564 12.8757160432924636
  9.6670699686304964  0.5155738769995035 -3.4665106939833183
  4.3734634662201897  5.6722168580155943 15.3517405483036846
 14.5466188561282888  6.7037913976012176 12.8758670383398375
  7.5885150052448411  1.8608694349655346 16.0226735208945108
  6.9019717477694327 10.5151490707460464 -0.3406931623625829
  0.9328340322645704  8.0485901881207873 -0.3407269041617627
 12.8822546246222966  4.3274241361213486 -2.7956811692738981
  6.1105047182429262  3.6646887761066074 15.7738398948850982
  8.3799715842094002  8.7113235219210203 -0.0918587949822335
  2.4108024622759978  9.8524608938775611 -0.0919106177682822
 11.4042965187254914  2.5235448694468299 -3.0444879833342209
  0.2793889959438184  1.1809449092141144 -0.0772011842906545
 13.5357046822200822 11.1950419781106287 -3.0591882527096468
  8.2420499480153175  7.3689342090261105 15.7592216362176618
  6.2484392253573668  5.0070605375275594 -0.0772134639305632
  6.7005320636984207 11.8604370546608564 16.0121160432924619
  7.7899699686304995  0.5155738769995035 -0.3301106939833193
  1.8209634662201883  5.6722168580155943 -0.3302594516963119
 11.9941188561282885  6.7037913976012176 -2.8061329616601594
  3.1541645447453188  2.7063610079703686  0.1322721503109861
  6.9067192818200409  9.6696445242855091  3.0041063986345198
  0.9375594383397468  8.8941526954866674  3.0040512946256555
  9.1233373242993760  3.4818532358517538  0.1323414285309425
  1.3118137047660465  1.2918305314334300  0.0066672827727929
  8.7490754933554093 11.0841644791422382  3.1297395251305371
  2.7800171586112659  7.4797571762132611  3.1297250551663729
  7.2808708232152837  4.8962375982704813  0.0066800893828706
  1.2770645447453179  2.7063610079703686  3.2686721503109859
  5.0296192818200387  9.6696445242855091  6.1405063986345203
 14.7526594383397445  8.8941526954866674 -0.1323487053743433
  7.2462373242993792  3.4818532358517538  3.2687414285309409
 15.1269137047660465  1.2918305314334300 -3.1297327172272071
  6.8719754933554089 11.0841644791422382  6.2661395251305354
  0.9029171586112676  7.4797571762132611  6.2661250551663725
  5.4037708232152841  4.8962375982704813  3.1430800893828703
 15.0921645447453177  2.7063610079703686  0.1322721503109863
  3.1525192818200387  9.6696445242855091  9.2769063986345195
 12.8755594383397458  8.8941526954866674  3.0040512946256541
  5.3691373242993796  3.4818532358517538  6.4051414285309418
 13.2498137047660478  1.2918305314334300  0.0066672827727922
  4.9948754933554129 11.0841644791422382  9.4025395251305355
 14.7180171586112660  7.4797571762132611  3.1297250551663711
  3.5266708232152806  4.8962375982704813  6.2794800893828704
 13.2150645447453190  2.7063610079703686  3.2686721503109837
  1.2754192818200425  9.6696445242855091 12.4133063986345178
 10.9984594383397454  8.8941526954866674  6.1404512946256542
  3.4920373242993765  3.4818532358517538  9.5415414285309410
 11.3727137047660474  1.2918305314334300  3.1430672827727917
  3.1177754933554094 11.0841644791422382 12.5389395251305356
 12.8409171586112638  7.4797571762132611  6.2661250551663725
  1.6495708232152844  4.8962375982704813  9.4158800893828687
 11.3379645447453168  2.7063610079703686  6.4050721503109846
 15.0905192818200398  9.6696445242855091  9.2769063986345195
  9.1213594383397449  8.8941526954866674  9.2768512946256543
  1.6149373242993728  3.4818532358517538 12.6779414285309411
  9.4956137047660469  1.2918305314334300  6.2794672827727913
  1.2406754933554096 11.0841644791422382 15.6753395251305356
 10.9638171586112652  7.4797571762132611  9.4025250551663735
 15.4646708232152825  4.8962375982704813  6.2794800893828704
  9.4608645447453181  2.7063610079703686  9.5414721503109838
 13.2134192818200393  9.6696445242855091 12.4133063986345196
  7.2442594383397463  8.8941526954866674 12.4132512946256544
 15.4300373242993754  3.4818532358517538  9.5415414285309428
  7.6185137047660456  1.2918305314334300  9.4158672827727923
 15.0557754933554104 11.0841644791422382 12.5389395251305356
  9.0867171586112647  7.4797571762132611 12.5389250551663736
 13.5875708232152839  4.8962375982704813  9.4158800893828669
  7.5837645447453195  2.7063610079703686 12.6778721503109839
 10.6609192818200409  9.6696445242855091 -3.2686936013654786
  5.3671594383397476  8.8941526954866674 15.5496512946256527
 13.5529373242993767  3.4818532358517538 12.6779414285309411
  5.7414137047660470  1.2918305314334300 12.5522672827727906
 12.5032754933554084 11.0841644791422382 -3.1430604748694608
  7.2096171586112670  7.4797571762132611 15.6753250551663701
 11.7104708232152852  4.8962375982704813 12.5522800893828688
  5.7066645447453199  2.7063610079703686 15.8142721503109822
  8.7838192818200387  9.6696445242855091 -0.1322936013654779
  2.8146594383397470  8.8941526954866674 -0.1323487053743451
 11.0004373242993765  3.4818532358517538 -3.0040585714690580
  3.8643137047660470  1.2918305314334300 15.6886672827727907
 10.6261754933554098 11.0841644791422382 -0.0066604748694657
  4.6571171586112667  7.4797571762132611 -0.0066749448336308
  9.1579708232152832  4.8962375982704813 -3.1297199106171334
 14.8473037696798684  3.5666861245818064 -3.2340175103114315
 10.9057738770160277  8.8093023626702127  0.0975790800570870
  4.9365229384580918  9.7546359753594380  0.0978435011787437
  5.1243755098882859  2.6213604462095863  3.0385584017949747
  1.5119001305269266 11.3975444100579359  0.0757483441804971
  8.5489979225104147  0.9784544364324337  3.0606765139453471
  2.5800552908007770  5.2094583963837469  3.0603001008909336
  7.4808251172734330  7.1665416146256646  0.0761382273875538
 12.9702037696798644  3.5666861245818064 -0.0976175103114304
  9.0286738770160238  8.8093023626702127  3.2339790800570887
  3.0594229384580895  9.7546359753594380  3.2342435011787436
  3.2472755098882846  2.6213604462095863  6.1749584017949752
 15.3270001305269243 11.3975444100579359 -3.0606516558195032
  6.6718979225104134  0.9784544364324337  6.1970765139453459
  0.7029552908007760  5.2094583963837469  6.1967001008909337
  5.6037251172734335  7.1665416146256646  3.2125382273875536
 11.0931037696798658  3.5666861245818064  3.0387824896885682
  7.1515738770160269  8.8093023626702127  6.3703790800570870
  1.1823229384580898  9.7546359753594380  6.3706435011787441
  1.3701755098882884  2.6213604462095863  9.3113584017949727
 13.4499001305269257 11.3975444100579359  0.0757483441804984
  4.7947979225104129  0.9784544364324337  9.3334765139453459
 14.5180552908007758  5.2094583963837469  3.0603001008909332
  3.7266251172734335  7.1665416146256646  6.3489382273875536
  9.2160037696798671  3.5666861245818064  6.1751824896885692
  5.2744738770160264  8.8093023626702127  9.5067790800570844
 14.9974229384580902  9.7546359753594380  3.2342435011787427
 15.1852755098882835  2.6213604462095863  6.1749584017949743
 11.5728001305269270 11.3975444100579359  3.2121483441804961
  2.9176979225104134  0.9784544364324337 12.4698765139453478
 12.6409552908007736  5.2094583963837469  6.1967001008909328
  1.8495251172734304  7.1665416146256646  9.4853382273875528
  7.3389037696798667  3.5666861245818064  9.3115824896885702
  3.3973738770160304  8.8093023626702127 12.6431790800570862
 13.1203229384580897  9.7546359753594380  6.3706435011787441
 13.3081755098882848  2.6213604462095863  9.3113584017949762
  9.6957001305269266 11.3975444100579359  6.3485483441804949
  1.0405979225104169  0.9784544364324337 15.6062765139453461
 10.7638552908007750  5.2094583963837469  9.3331001008909329
 15.6646251172734310  7.1665416146256646  6.3489382273875545
  5.4618037696798680  3.5666861245818064 12.4479824896885685
  1.5202738770160271  8.8093023626702127 15.7795790800570845
 11.2432229384580911  9.7546359753594380  9.5070435011787424
 11.4310755098882861  2.6213604462095863 12.4477584017949710
  7.8186001305269262 11.3975444100579359  9.4849483441804949
 14.8556979225104140  0.9784544364324337 12.4698765139453478
  8.8867552908007763  5.2094583963837469 12.4695001008909330
 13.7875251172734306  7.1665416146256646  9.4853382273875546
  3.5847037696798680  3.5666861245818064 15.5843824896885668
 15.3353738770160284  8.8093023626702127 12.6431790800570845
  9.3661229384580906  9.7546359753594380 12.6434435011787443
  8.8785755098882859  2.6213604462095863 -3.2342415982050250
  5.9415001305269266 11.3975444100579359 12.6213483441804968
 12.3031979225104138  0.9784544364324337 -3.2121234860546557
  7.0096552908007768  5.2094583963837469 15.6059001008909330
 11.9104251172734319  7.1665416146256646 12.6217382273875547
  1.0322037696798672  3.5666861245818064 -0.0976175103114323
 12.7828738770160282  8.8093023626702127 -3.0388209199429124
  7.4890229384580920  9.7546359753594380 15.7798435011787390
  7.0014755098882864  2.6213604462095863 -0.0978415982050256
  4.0644001305269271 11.3975444100579359 15.7577483441804969
 10.4260979225104116  0.9784544364324337 -0.0757234860546552
  4.4571552908007757  5.2094583963837469 -0.0760998991090689
  9.3579251172734299  7.1665416146256646 -3.0602617726124466
