 C  H  N  O 
 1.0000000000000000
    26.2918313747129559    0.0000000000000000    0.0000000000000000
     0.0000000000000000   19.3560880412455809    0.0000000000000000
     0.0000000000000000    0.0000000000000000    7.7003813892196611
 C   H   N   O  
 128 160  96  32
Selective dynamics
Cartesian
 12.9376886373364872  1.5286090939085932  1.2749800718509239   T   T   T
 26.0836043246928959  1.5286090939085932  1.2749800718509239   T   T   T
 12.9376886373364872 11.2066531145314006  1.2749800718509239   T   T   T
 26.0836043246928959 11.2066531145314006  1.2749800718509239   T   T   T
 12.9376886373364872  1.5286090939085932  5.1251707664607311   T   T   T
 26.0836043246928959  1.5286090939085932  5.1251707664607311   T   T   T
 12.9376886373364872 11.2066531145314006  5.1251707664607311   T   T   T
 26.0836043246928959 11.2066531145314006  5.1251707664607311   T   T   T
  6.7812001527734616  8.1494083275494180  3.2000754191558411   T   T   T
 19.9271158401298720  8.1494083275494180  3.2000754191558411   T   T   T
  6.7812001527734616 17.8274523481722085  3.2000754191558411   T   T   T
 19.9271158401298720 17.8274523481722085  3.2000754191558411   T   T   T
  6.7812001527734616  8.1494083275494180  7.0502661137656553   T   T   T
 19.9271158401298720  8.1494083275494180  7.0502661137656553   T   T   T
  6.7812001527734616 17.8274523481722085  7.0502661137656553   T   T   T
 19.9271158401298720 17.8274523481722085  7.0502661137656553   T   T   T
  0.2082423090952595  6.3676311042199831  0.6501175137483081   T   T   T
 13.3541579964516988  6.3676311042199831  0.6501175137483081   T   T   T
  0.2082423090952595 16.0456751248428091  0.6501175137483081   T   T   T
 13.3541579964516988 16.0456751248428091  0.6501175137483081   T   T   T
  0.2082423090952595  6.3676311042199831  4.5003082083580992   T   T   T
 13.3541579964516988  6.3676311042199831  4.5003082083580992   T   T   T
  0.2082423090952595 16.0456751248428091  4.5003082083580992   T   T   T
 13.3541579964516988 16.0456751248428091  4.5003082083580992   T   T   T
  6.3647307936582767  3.3103863172380144  2.5752128610532048   T   T   T
 19.5106464810146356  3.3103863172380144  2.5752128610532048   T   T   T
  6.3647307936582767 12.9884303378608141  2.5752128610532048   T   T   T
 19.5106464810146356 12.9884303378608141  2.5752128610532048   T   T   T
  6.3647307936582767  3.3103863172380144  6.4254035556630242   T   T   T
 19.5106464810146356  3.3103863172380144  6.4254035556630242   T   T   T
  6.3647307936582767 12.9884303378608141  6.4254035556630242   T   T   T
 19.5106464810146356 12.9884303378608141  6.4254035556630242   T   T   T
  1.7179346249488130  2.5786344451378924  2.1274239344110142   T   T   T
 14.8638503123052406  2.5786344451378933  2.1274239344110142   T   T   T
  1.7179346249488130 12.2566784657606984  2.1274239344110142   T   T   T
 14.8638503123052406 12.2566784657606984  2.1274239344110142   T   T   T
  1.7179346249488130  2.5786344451378933  5.9776146290208283   T   T   T
 14.8638503123052406  2.5786344451378924  5.9776146290208283   T   T   T
  1.7179346249488130 12.2566784657606984  5.9776146290208283   T   T   T
 14.8638503123052406 12.2566784657606984  5.9776146290208283   T   T   T
  4.8550384778047126  7.0993829763201113  0.2023285871061194   T   T   T
 18.0009541651610547  7.0993829763201113  0.2023285871061194   T   T   T
  4.8550384778047126 16.7774269969429071  0.2023285871061194   T   T   T
 18.0009541651610547 16.7774269969429071  0.2023285871061194   T   T   T
  4.8550384778047126  7.0993829763201113  4.0525192817159095   T   T   T
 18.0009541651610547  7.0993829763201113  4.0525192817159095   T   T   T
  4.8550384778047126 16.7774269969429071  4.0525192817159095   T   T   T
 18.0009541651610547 16.7774269969429071  4.0525192817159095   T   T   T
 11.4279963214829241  7.4176564554492979  3.6478643457980287   T   T   T
 24.5739120088393115  7.4176564554492979  3.6478643457980287   T   T   T
 11.4279963214829241 17.0957004760721070  3.6478643457980287   T   T   T
 24.5739120088393115 17.0957004760721070  3.6478643457980287   T   T   T
 11.4279963214829241  7.4176564554492979  7.4980550404078441   T   T   T
 24.5739120088393115  7.4176564554492979  7.4980550404078441   T   T   T
 11.4279963214829241 17.0957004760721070  7.4980550404078441   T   T   T
 24.5739120088393115 17.0957004760721070  7.4980550404078441   T   T   T
  8.2908924686269945  2.2603609660087143  1.7227689984931163   T   T   T
 21.4368081559834636  2.2603609660087143  1.7227689984931163   T   T   T
  8.2908924686269945 11.9384049866315181  1.7227689984931163   T   T   T
 21.4368081559834636 11.9384049866315181  1.7227689984931163   T   T   T
  8.2908924686269945  2.2603609660087143  5.5729596931029244   T   T   T
 21.4368081559834636  2.2603609660087143  5.5729596931029244   T   T   T
  8.2908924686269945 11.9384049866315181  5.5729596931029244   T   T   T
 21.4368081559834636 11.9384049866315181  5.5729596931029244   T   T   T
  2.2609139005679819  1.3290846188709211  2.5780370509210391   T   T   T
 15.4068295879244150  1.3290846188709211  2.5780370509210391   T   T   T
  2.2609139005679819 11.0071286394937289  2.5780370509210391   T   T   T
 15.4068295879244150 11.0071286394937289  2.5780370509210391   T   T   T
  2.2609139005679819  1.3290846188709211  6.4282277455308625   T   T   T
 15.4068295879244150  1.3290846188709211  6.4282277455308625   T   T   T
  2.2609139005679819 11.0071286394937289  6.4282277455308625   T   T   T
 15.4068295879244150 11.0071286394937289  6.4282277455308625   T   T   T
  4.3120592021855328  8.3489328025870879  0.6529417036161342   T   T   T
 17.4579748895419229  8.3489328025870879  0.6529417036161342   T   T   T
  4.3120592021855328 18.0269768232099210  0.6529417036161342   T   T   T
 17.4579748895419229 18.0269768232099210  0.6529417036161342   T   T   T
  4.3120592021855328  8.3489328025870879  4.5031323982259401   T   T   T
 17.4579748895419229  8.3489328025870879  4.5031323982259401   T   T   T
  4.3120592021855328 18.0269768232099210  4.5031323982259401   T   T   T
 17.4579748895419229 18.0269768232099210  4.5031323982259401   T   T   T
 10.8850170458637443  6.1681066291823132  3.1972512292880069   T   T   T
 24.0309327332201867  6.1681066291823132  3.1972512292880069   T   T   T
 10.8850170458637443 15.8461506498051214  3.1972512292880069   T   T   T
 24.0309327332201867 15.8461506498051214  3.1972512292880069   T   T   T
 10.8850170458637443  6.1681066291823132  7.0474419238978223   T   T   T
 24.0309327332201867  6.1681066291823132  7.0474419238978223   T   T   T
 10.8850170458637443 15.8461506498051214  7.0474419238978223   T   T   T
 24.0309327332201867 15.8461506498051214  7.0474419238978223   T   T   T
  8.8338717442461725  3.5099107922756900  1.2721558819830969   T   T   T
 21.9797874316025990  3.5099107922756900  1.2721558819830969   T   T   T
  8.8338717442461725 13.1879548128984787  1.2721558819830969   T   T   T
 21.9797874316025990 13.1879548128984787  1.2721558819830969   T   T   T
  8.8338717442461725  3.5099107922756900  5.1223465765928964   T   T   T
 21.9797874316025990  3.5099107922756900  5.1223465765928964   T   T   T
  8.8338717442461725 13.1879548128984787  5.1223465765928964   T   T   T
 21.9797874316025990 13.1879548128984787  5.1223465765928964   T   T   T
  1.5159523188513011  0.2114882060578918  2.3524684923965151   T   T   T
 14.6618680062077296  0.2114882060578918  2.3524684923965151   T   T   T
  1.5159523188513011  9.8895322266807053  2.3524684923965151   T   T   T
 14.6618680062077296  9.8895322266807053  2.3524684923965151   T   T   T
  1.5159523188513011  0.2114882060578918  6.2026591870063426   T   T   T
 14.6618680062077296  0.2114882060578918  6.2026591870063426   T   T   T
  1.5159523188513011  9.8895322266807053  6.2026591870063426   T   T   T
 14.6618680062077296  9.8895322266807053  6.2026591870063426   T   T   T
  5.0570207839022414  9.4665292154001115  0.4273731450916152   T   T   T
 18.2029364712585533  9.4665292154001115  0.4273731450916152   T   T   T
  5.0570207839022414 19.1445732360228860  0.4273731450916152   T   T   T
 18.2029364712585533 19.1445732360228860  0.4273731450916152   T   T   T
  5.0570207839022414  9.4665292154001115  4.2775638397014148   T   T   T
 18.2029364712585533  9.4665292154001115  4.2775638397014148   T   T   T
  5.0570207839022414 19.1445732360228860  4.2775638397014148   T   T   T
 18.2029364712585533 19.1445732360228860  4.2775638397014148   T   T   T
 11.6299786275804298  5.0505102163692976  3.4228197878125290   T   T   T
 24.7758943149368349  5.0505102163692976  3.4228197878125290   T   T   T
 11.6299786275804298 14.7285542369920979  3.4228197878125290   T   T   T
 24.7758943149368349 14.7285542369920979  3.4228197878125290   T   T   T
 11.6299786275804298  5.0505102163692976  7.2730104824223369   T   T   T
 24.7758943149368349  5.0505102163692976  7.2730104824223369   T   T   T
 11.6299786275804298 14.7285542369920979  7.2730104824223369   T   T   T
 24.7758943149368349 14.7285542369920979  7.2730104824223369   T   T   T
  8.0889101625294835  4.6275072050887127  1.4977244405076213   T   T   T
 21.2348258498859437  4.6275072050887127  1.4977244405076213   T   T   T
  8.0889101625294835 14.3055512257115076  1.4977244405076213   T   T   T
 21.2348258498859437 14.3055512257115076  1.4977244405076213   T   T   T
  8.0889101625294835  4.6275072050887127  5.3479151351174163   T   T   T
 21.2348258498859437  4.6275072050887127  5.3479151351174163   T   T   T
  8.0889101625294835 14.3055512257115076  5.3479151351174163   T   T   T
 21.2348258498859437 14.3055512257115076  5.3479151351174163   T   T   T
 13.0178803673701395  9.1052711335881984  1.3831715473001873   T   T   T
 26.1637960547265465  9.1052711335881984  1.3831715473001873   T   T   T
 13.0178803673701395 18.7833151542110066  1.3831715473001873   T   T   T
 26.1637960547265465 18.7833151542110066  1.3831715473001873   T   T   T
 13.0178803673701395  9.1052711335881984  5.2333622419099957   T   T   T
 26.1637960547265465  9.1052711335881984  5.2333622419099957   T   T   T
 13.0178803673701395 18.7833151542110066  5.2333622419099957   T   T   T
 26.1637960547265465 18.7833151542110066  5.2333622419099957   T   T   T
  6.7010084227398297  0.5727462878697988  3.3082668946051017   T   T   T
 19.8469241100962499  0.5727462878697988  3.3082668946051017   T   T   T
  6.7010084227398297 10.2507903084926060  3.3082668946051017   T   T   T
 19.8469241100962499 10.2507903084926060  3.3082668946051017   T   T   T
  6.7010084227398297  0.5727462878697988  7.1584575892149180   T   T   T
 19.8469241100962499  0.5727462878697988  7.1584575892149180   T   T   T
  6.7010084227398297 10.2507903084926060  7.1584575892149180   T   T   T
 19.8469241100962499 10.2507903084926060  7.1584575892149180   T   T   T
  0.1280505790616279  4.2662491232768067  0.5419260382990466   T   T   T
 13.2739662664180695  4.2662491232768067  0.5419260382990466   T   T   T
  0.1280505790616279 13.9442931438995910  0.5419260382990466   T   T   T
 13.2739662664180695 13.9442931438995910  0.5419260382990466   T   T   T
  0.1280505790616279  4.2662491232768067  4.3921167329088400   T   T   T
 13.2739662664180695  4.2662491232768067  4.3921167329088400   T   T   T
  0.1280505790616279 13.9442931438995910  4.3921167329088400   T   T   T
 13.2739662664180695 13.9442931438995910  4.3921167329088400   T   T   T
  6.4449225236919148  5.4117682981812019  2.4670213856039425   T   T   T
 19.5908382110482755  5.4117682981812019  2.4670213856039425   T   T   T
  6.4449225236919148 15.0898123188040092  2.4670213856039425   T   T   T
 19.5908382110482755 15.0898123188040092  2.4670213856039425   T   T   T
  6.4449225236919148  5.4117682981812019  6.3172120802137686   T   T   T
 19.5908382110482755  5.4117682981812019  6.3172120802137686   T   T   T
  6.4449225236919148 15.0898123188040092  6.3172120802137686   T   T   T
 19.5908382110482755 15.0898123188040092  6.3172120802137686   T   T   T
  2.0311433730894013  4.6097130221671900  2.0124280243096297   T   T   T
 15.1770590604458508  4.6097130221671900  2.0124280243096297   T   T   T
  2.0311433730894013 14.2877570427899752  2.0124280243096297   T   T   T
 15.1770590604458508 14.2877570427899752  2.0124280243096297   T   T   T
  2.0311433730894013  4.6097130221671900  5.8626187189194470   T   T   T
 15.1770590604458508  4.6097130221671900  5.8626187189194470   T   T   T
  2.0311433730894013 14.2877570427899752  5.8626187189194470   T   T   T
 15.1770590604458508 14.2877570427899752  5.8626187189194470   T   T   T
  4.5418297296641130  5.0683043992908274  0.0873326770047338   T   T   T
 17.6877454170204906  5.0683043992908274  0.0873326770047338   T   T   T
  4.5418297296641130 14.7463484199136392  0.0873326770047338   T   T   T
 17.6877454170204906 14.7463484199136392  0.0873326770047338   T   T   T
  4.5418297296641130  5.0683043992908274  3.9375233716145503   T   T   T
 17.6877454170204906  5.0683043992908274  3.9375233716145503   T   T   T
  4.5418297296641130 14.7463484199136392  3.9375233716145503   T   T   T
 17.6877454170204906 14.7463484199136392  3.9375233716145503   T   T   T
 11.1147875733423191  9.4487350324785826  3.7628602558994113   T   T   T
 24.2607032606987438  9.4487350324785826  3.7628602558994113   T   T   T
 11.1147875733423191 19.1267790531013659  3.7628602558994113   T   T   T
 24.2607032606987438 19.1267790531013659  3.7628602558994113   T   T   T
 11.1147875733423191  9.4487350324785826  7.6130509505092299   T   T   T
 24.2607032606987438  9.4487350324785826  7.6130509505092299   T   T   T
 11.1147875733423191 19.1267790531013659  7.6130509505092299   T   T   T
 24.2607032606987438 19.1267790531013659  7.6130509505092299   T   T   T
  8.6041012167675923  0.2292823889794152  1.8377649085945040   T   T   T
 21.7500169041240241  0.2292823889794152  1.8377649085945040   T   T   T
  8.6041012167675923  9.9073264096022342  1.8377649085945040   T   T   T
 21.7500169041240241  9.9073264096022342  1.8377649085945040   T   T   T
  8.6041012167675923  0.2292823889794152  5.6879556032043013   T   T   T
 21.7500169041240241  0.2292823889794153  5.6879556032043013   T   T   T
  8.6041012167675923  9.9073264096022342  5.6879556032043013   T   T   T
 21.7500169041240241  9.9073264096022342  5.6879556032043013   T   T   T
  3.3821850517810259  3.6628219037795966  2.6314667466327610   T   T   T
 16.5281007391373649  3.6628219037795966  2.6314667466327610   T   T   T
  3.3821850517810259 13.3408659244023866  2.6314667466327610   T   T   T
 16.5281007391373649 13.3408659244023866  2.6314667466327610   T   T   T
  3.3821850517810259  3.6628219037795966  6.4816574412425787   T   T   T
 16.5281007391373649  3.6628219037795966  6.4816574412425787   T   T   T
  3.3821850517810259 13.3408659244023866  6.4816574412425787   T   T   T
 16.5281007391373649 13.3408659244023866  6.4816574412425787   T   T   T
  3.1907880509725079  6.0151955176784115  0.7063713993278554   T   T   T
 16.3367037383288682  6.0151955176784115  0.7063713993278554   T   T   T
  3.1907880509725079 15.6932395383012153  0.7063713993278554   T   T   T
 16.3367037383288682 15.6932395383012153  0.7063713993278554   T   T   T
  3.1907880509725079  6.0151955176784115  4.5565620939376492   T   T   T
 16.3367037383288682  6.0151955176784115  4.5565620939376492   T   T   T
  3.1907880509725079 15.6932395383012153  4.5565620939376492   T   T   T
 16.3367037383288682 15.6932395383012153  4.5565620939376492   T   T   T
  9.7637458946507127  8.5018439140909816  3.1438215335762862   T   T   T
 22.9096615820071818  8.5018439140909816  3.1438215335762862   T   T   T
  9.7637458946507127 18.1798879347137898  3.1438215335762862   T   T   T
 22.9096615820071818 18.1798879347137898  3.1438215335762862   T   T   T
  9.7637458946507127  8.5018439140909816  6.9940122281861061   T   T   T
 22.9096615820071818  8.5018439140909816  6.9940122281861061   T   T   T
  9.7637458946507127 18.1798879347137898  6.9940122281861061   T   T   T
 22.9096615820071818 18.1798879347137898  6.9940122281861061   T   T   T
  9.9551428954592236  1.1761735073670176  1.2187261862713756   T   T   T
 23.1010585828156323  1.1761735073670176  1.2187261862713756   T   T   T
  9.9551428954592236 10.8542175279898263  1.2187261862713756   T   T   T
 23.1010585828156323 10.8542175279898263  1.2187261862713756   T   T   T
  9.9551428954592236  1.1761735073670176  5.0689168808811838   T   T   T
 23.1010585828156323  1.1761735073670176  5.0689168808811838   T   T   T
  9.9551428954592236 10.8542175279898263  5.0689168808811838   T   T   T
 23.1010585828156323 10.8542175279898263  5.0689168808811838   T   T   T
  3.2143765376469924  1.2970638059914523  3.0809405346761385   T   T   T
 16.3602922250033700  1.2970638059914523  3.0809405346761385   T   T   T
  3.2143765376469924 10.9751078266142557  3.0809405346761385   T   T   T
 16.3602922250033700 10.9751078266142557  3.0809405346761385   T   T   T
  3.2143765376469924  1.2970638059914530  6.9311312292859419   T   T   T
 16.3602922250033700  1.2970638059914530  6.9311312292859419   T   T   T
  3.2143765376469924 10.9751078266142557  6.9311312292859419   T   T   T
 16.3602922250033700 10.9751078266142557  6.9311312292859419   T   T   T
  3.3585965651065441  8.3809536154665594  1.1558451873712221   T   T   T
 16.5045122524628880  8.3809536154665594  1.1558451873712221   T   T   T
  3.3585965651065441 18.0589976360893800  1.1558451873712221   T   T   T
 16.5045122524628880 18.0589976360893800  1.1558451873712221   T   T   T
  3.3585965651065441  8.3809536154665594  5.0060358819810240   T   T   T
 16.5045122524628880  8.3809536154665594  5.0060358819810240   T   T   T
  3.3585965651065441 18.0589976360893800  5.0060358819810240   T   T   T
 16.5045122524628880 18.0589976360893800  5.0060358819810240   T   T   T
  9.9315544087847254  6.1360858163028595  2.6943477455329088   T   T   T
 23.0774700961411838  6.1360858163028595  2.6943477455329088   T   T   T
  9.9315544087847254 15.8141298369256535  2.6943477455329088   T   T   T
 23.0774700961411838 15.8141298369256535  2.6943477455329088   T   T   T
  9.9315544087847254  6.1360858163028595  6.5445384401427384   T   T   T
 23.0774700961411838  6.1360858163028595  6.5445384401427384   T   T   T
  9.9315544087847254 15.8141298369256553  6.5445384401427384   T   T   T
 23.0774700961411838 15.8141298369256553  6.5445384401427384   T   T   T
  9.7873343813251914  3.5419316051551566  0.7692523982280087   T   T   T
 22.9332500686816338  3.5419316051551566  0.7692523982280087   T   T   T
  9.7873343813251914 13.2199756257779590  0.7692523982280087   T   T   T
 22.9332500686816338 13.2199756257779590  0.7692523982280087   T   T   T
  9.7873343813251914  3.5419316051551566  4.6194430928378045   T   T   T
 22.9332500686816338  3.5419316051551566  4.6194430928378045   T   T   T
  9.7873343813251914 13.2199756257779590  4.6194430928378045   T   T   T
 22.9332500686816338 13.2199756257779590  4.6194430928378045   T   T   T
  1.8106901813248879  8.8899938987327420  2.6490970211875546   T   T   T
 14.9566058686813239  8.8899938987327420  2.6490970211875546   T   T   T
  1.8106901813248879 18.5680379193555609  2.6490970211875546   T   T   T
 14.9566058686813239 18.5680379193555609  2.6490970211875546   T   T   T
  1.8106901813248879  8.8899938987327420  6.4992877157973723   T   T   T
 14.9566058686813239  8.8899938987327420  6.4992877157973723   T   T   T
  1.8106901813248879 18.5680379193555609  6.4992877157973723   T   T   T
 14.9566058686813239 18.5680379193555609  6.4992877157973723   T   T   T
  4.7622829214286453  0.7880235227252613  0.7240016738826545   T   T   T
 17.9081986087849927  0.7880235227252613  0.7240016738826545   T   T   T
  4.7622829214286453 10.4660675433480588  0.7240016738826545   T   T   T
 17.9081986087849927 10.4660675433480588  0.7240016738826545   T   T   T
  4.7622829214286453  0.7880235227252613  4.5741923684924481   T   T   T
 17.9081986087849927  0.7880235227252613  4.5741923684924481   T   T   T
  4.7622829214286453 10.4660675433480588  4.5741923684924481   T   T   T
 17.9081986087849927 10.4660675433480588  4.5741923684924481   T   T   T
 11.3352407651068461  4.0509718884213521  3.1261912590214926   T   T   T
 24.4811564524632175  4.0509718884213521  3.1261912590214926   T   T   T
 11.3352407651068461 13.7290159090441399  3.1261912590214926   T   T   T
 24.4811564524632175 13.7290159090441399  3.1261912590214926   T   T   T
 11.3352407651068461  4.0509718884213521  6.9763819536313072   T   T   T
 24.4811564524632175  4.0509718884213521  6.9763819536313072   T   T   T
 11.3352407651068461 13.7290159090441399  6.9763819536313072   T   T   T
 24.4811564524632175 13.7290159090441399  6.9763819536313072   T   T   T
  8.3836480250030796  5.6270455330366644  1.2010959117165805   T   T   T
 21.5295637123595363  5.6270455330366644  1.2010959117165805   T   T   T
  8.3836480250030796 15.3050895536594531  1.2010959117165805   T   T   T
 21.5295637123595363 15.3050895536594531  1.2010959117165805   T   T   T
  8.3836480250030796  5.6270455330366644  5.0512866063263848   T   T   T
 21.5295637123595363  5.6270455330366644  5.0512866063263848   T   T   T
  8.3836480250030796 15.3050895536594531  5.0512866063263848   T   T   T
 21.5295637123595363 15.3050895536594531  5.0512866063263848   T   T   T
  0.3130956013395066  0.3014132466944138  1.7163522214422364   T   T   T
 13.4590112886959172  0.3014132466944138  1.7163522214422364   T   T   T
  0.3130956013395066  9.9794572673172368  1.7163522214422364   T   T   T
 13.4590112886959172  9.9794572673172368  1.7163522214422364   T   T   T
  0.3130956013395066  0.3014132466944138  5.5665429160520432   T   T   T
 13.4590112886959172  0.3014132466944138  5.5665429160520432   T   T   T
  0.3130956013395066  9.9794572673172368  5.5665429160520432   T   T   T
 13.4590112886959172  9.9794572673172368  5.5665429160520432   T   T   T
  6.2598775014140280  9.3766041747635764  3.6414475687471484   T   T   T
 19.4057931887703958  9.3766041747635764  3.6414475687471484   T   T   T
  6.2598775014140280 19.0546481953863989  3.6414475687471484   T   T   T
 19.4057931887703958 19.0546481953863989  3.6414475687471484   T   T   T
  6.2598775014140280  9.3766041747635764  7.4916382633569656   T   T   T
 19.4057931887703958  9.3766041747635764  7.4916382633569656   T   T   T
  6.2598775014140280 19.0546481953863989  7.4916382633569656   T   T   T
 19.4057931887703958 19.0546481953863989  7.4916382633569656   T   T   T
 12.8328353450922510  5.1404352570058212  0.2087453641570001   T   T   T
 25.9787510324486490  5.1404352570058212  0.2087453641570001   T   T   T
 12.8328353450922510 14.8184792776286294  0.2087453641570001   T   T   T
 25.9787510324486490 14.8184792776286294  0.2087453641570001   T   T   T
 12.8328353450922510  5.1404352570058212  4.0589360587667871   T   T   T
 25.9787510324486490  5.1404352570058212  4.0589360587667871   T   T   T
 12.8328353450922510 14.8184792776286294  4.0589360587667871   T   T   T
 25.9787510324486490 14.8184792776286294  4.0589360587667871   T   T   T
  6.8860534450177138  4.5375821644521928  2.1338407114618931   T   T   T
 20.0319691323741189  4.5375821644521928  2.1338407114618931   T   T   T
  6.8860534450177138 14.2156261850749654  2.1338407114618931   T   T   T
 20.0319691323741189 14.2156261850749654  2.1338407114618931   T   T   T
  6.8860534450177138  4.5375821644521928  5.9840314060717104   T   T   T
 20.0319691323741189  4.5375821644521928  5.9840314060717104   T   T   T
  6.8860534450177138 14.2156261850749654  5.9840314060717104   T   T   T
 20.0319691323741189 14.2156261850749654  5.9840314060717104   T   T   T
  0.5188576704550858  2.6601447599069470  1.5112108776605446   T   T   T
 13.6647733578114998  2.6601447599069470  1.5112108776605446   T   T   T
  0.5188576704550858 12.3381887805297374  1.5112108776605446   T   T   T
 13.6647733578114998 12.3381887805297374  1.5112108776605446   T   T   T
  0.5188576704550858  2.6601447599069470  5.3614015722703439   T   T   T
 13.6647733578114998  2.6601447599069470  5.3614015722703439   T   T   T
  0.5188576704550858 12.3381887805297374  5.3614015722703439   T   T   T
 13.6647733578114998 12.3381887805297374  5.3614015722703439   T   T   T
  6.0541154322984481  7.0178726615510527  3.4363062249654504   T   T   T
 19.2000311196547884  7.0178726615510527  3.4363062249654504   T   T   T
  6.0541154322984481 16.6959166821738378  3.4363062249654504   T   T   T
 19.2000311196547884 16.6959166821738378  3.4363062249654504   T   T   T
  6.0541154322984481  7.0178726615510527  7.2864969195752636   T   T   T
 19.2000311196547884  7.0178726615510527  7.2864969195752636   T   T   T
  6.0541154322984481 16.6959166821738378  7.2864969195752636   T   T   T
 19.2000311196547884 16.6959166821738378  7.2864969195752636   T   T   T
 12.6270732759766631  7.4991667702183546  0.4138867079386915   T   T   T
 25.7729889633330558  7.4991667702183546  0.4138867079386915   T   T   T
 12.6270732759766631 17.1772107908411691  0.4138867079386915   T   T   T
 25.7729889633330558 17.1772107908411691  0.4138867079386915   T   T   T
 12.6270732759766631  7.4991667702183546  4.2640774025484873   T   T   T
 25.7729889633330558  7.4991667702183546  4.2640774025484873   T   T   T
 12.6270732759766631 17.1772107908411691  4.2640774025484873   T   T   T
 25.7729889633330558 17.1772107908411691  4.2640774025484873   T   T   T
  7.0918155141333035  2.1788506512396673  2.3389820552435929   T   T   T
 20.2377312014897335  2.1788506512396673  2.3389820552435929   T   T   T
  7.0918155141333035 11.8568946718624666  2.3389820552435929   T   T   T
 20.2377312014897335 11.8568946718624666  2.3389820552435929   T   T   T
  7.0918155141333035  2.1788506512396664  6.1891727498534239   T   T   T
 20.2377312014897335  2.1788506512396664  6.1891727498534239   T   T   T
  7.0918155141333035 11.8568946718624666  6.1891727498534239   T   T   T
 20.2377312014897335 11.8568946718624666  6.1891727498534239   T   T   T
  2.4122867591990151  3.7186714086426820  2.3291863506677317   T   T   T
 15.5582024465554749  3.7186714086426820  2.3291863506677317   T   T   T
  2.4122867591990151 13.3967154292654502  2.3291863506677317   T   T   T
 15.5582024465554749 13.3967154292654502  2.3291863506677317   T   T   T
  2.4122867591990151  3.7186714086426820  6.1793770452775618   T   T   T
 15.5582024465554749  3.7186714086426820  6.1793770452775618   T   T   T
  2.4122867591990151 13.3967154292654502  6.1793770452775618   T   T   T
 15.5582024465554749 13.3967154292654502  6.1793770452775618   T   T   T
  4.1606863435545014  5.9593460128153328  0.4040910033628349   T   T   T
 17.3066020309108488  5.9593460128153328  0.4040910033628349   T   T   T
  4.1606863435545014 15.6373900334381410  0.4040910033628349   T   T   T
 17.3066020309108488 15.6373900334381410  0.4040910033628349   T   T   T
  4.1606863435545014  5.9593460128153328  4.2542816979726314   T   T   T
 17.3066020309108488  5.9593460128153328  4.2542816979726314   T   T   T
  4.1606863435545014 15.6373900334381410  4.2542816979726314   T   T   T
 17.3066020309108488 15.6373900334381410  4.2542816979726314   T   T   T
 10.7336441872327057  8.5576934189540630  3.4461019295413107   T   T   T
 23.8795598745891340  8.5576934189540630  3.4461019295413107   T   T   T
 10.7336441872327057 18.2357374395768588  3.4461019295413107   T   T   T
 23.8795598745891340 18.2357374395768588  3.4461019295413107   T   T   T
 10.7336441872327057  8.5576934189540630  7.2962926241511239   T   T   T
 23.8795598745891340  8.5576934189540630  7.2962926241511239   T   T   T
 10.7336441872327057 18.2357374395768588  7.2962926241511239   T   T   T
 23.8795598745891340 18.2357374395768588  7.2962926241511239   T   T   T
  8.9852446028772253  1.1203240025039307  1.5210065822364047   T   T   T
 22.1311602902336730  1.1203240025039307  1.5210065822364047   T   T   T
  8.9852446028772253 10.7983680231267378  1.5210065822364047   T   T   T
 22.1311602902336730 10.7983680231267378  1.5210065822364047   T   T   T
  8.9852446028772253  1.1203240025039307  5.3711972768461997   T   T   T
 22.1311602902336730  1.1203240025039307  5.3711972768461997   T   T   T
  8.9852446028772253 10.7983680231267378  5.3711972768461997   T   T   T
 22.1311602902336730 10.7983680231267378  5.3711972768461997   T   T   T
 11.8360633660316505  1.5407835248274926  0.6601640180797170   T   T   T
 24.9819790533880557  1.5407835248274926  0.6601640180797170   T   T   T
 11.8360633660316505 11.2188275454502868  0.6601640180797170   T   T   T
 24.9819790533880557 11.2188275454502868  0.6601640180797170   T   T   T
 11.8360633660316505  1.5407835248274926  4.5103547126895274   T   T   T
 24.9819790533880557  1.5407835248274926  4.5103547126895274   T   T   T
 11.8360633660316505 11.2188275454502868  4.5103547126895274   T   T   T
 24.9819790533880557 11.2188275454502868  4.5103547126895274   T   T   T
  7.8828254240783098  8.1372338966305247  2.5852593653846179   T   T   T
 21.0287411114347336  8.1372338966305247  2.5852593653846179   T   T   T
  7.8828254240783098 17.8152779172533222  2.5852593653846179   T   T   T
 21.0287411114347336 17.8152779172533222  2.5852593653846179   T   T   T
  7.8828254240783098  8.1372338966305247  6.4354500599944497   T   T   T
 21.0287411114347336  8.1372338966305247  6.4354500599944497   T   T   T
  7.8828254240783098 17.8152779172533222  6.4354500599944497   T   T   T
 21.0287411114347336 17.8152779172533222  6.4354500599944497   T   T   T
  1.3098675804000994  6.3798055351388898  1.2649335675195152   T   T   T
 14.4557832677565212  6.3798055351388898  1.2649335675195152   T   T   T
  1.3098675804000994 16.0578495557617096  1.2649335675195152   T   T   T
 14.4557832677565212 16.0578495557617096  1.2649335675195152   T   T   T
  1.3098675804000994  6.3798055351388898  5.1151242621293171   T   T   T
 14.4557832677565212  6.3798055351388898  5.1151242621293171   T   T   T