 C  N  O  H                             
   1.0000000000000000     
    22.0000000000000000    0.0000000000000000    0.0000000000000000
     0.0000000000000000   22.0000000000000000    0.0000000000000000
     0.0000000000000000    0.0000000000000000   22.0000000000000000
   C    N    O    H 
     3     1     2     7
Direct
  0.2277327829171725  0.3281303871102068  0.2786994766330579
  0.3188308799443931  0.2673766656535506  0.2751742355681586
  0.3362253403656510  0.2009330114959766  0.2672809249516419
  0.1652249476222636  0.3251200638495817  0.2774909233733851
  0.2573277070607105  0.3743560505085028  0.2863867591357447
  0.2519441598666674  0.2706977381136397  0.2716924682625432
  0.1429484942527353  0.3648361145874688  0.2727944058000418
  0.1449878741834496  0.2871665295807446  0.2616925272898740
  0.3330880532514371  0.2854268652840375  0.3190740324879116
  0.3377994394350452  0.2961144346148643  0.2395214665190366
  0.3856108335941641  0.1963940334375138  0.2694686263600801
  0.3163331545177996  0.1730150603528315  0.3031203311525701
  0.3208604238975994  0.1836507726838121  0.2230401861023108

  0.00000000E+00  0.00000000E+00  0.00000000E+00
  0.00000000E+00  0.00000000E+00  0.00000000E+00
  0.00000000E+00  0.00000000E+00  0.00000000E+00
  0.00000000E+00  0.00000000E+00  0.00000000E+00
  0.00000000E+00  0.00000000E+00  0.00000000E+00
  0.00000000E+00  0.00000000E+00  0.00000000E+00
  0.00000000E+00  0.00000000E+00  0.00000000E+00
  0.00000000E+00  0.00000000E+00  0.00000000E+00
  0.00000000E+00  0.00000000E+00  0.00000000E+00
  0.00000000E+00  0.00000000E+00  0.00000000E+00
  0.00000000E+00  0.00000000E+00  0.00000000E+00
  0.00000000E+00  0.00000000E+00  0.00000000E+00
  0.00000000E+00  0.00000000E+00  0.00000000E+00
