 C  N  O  H                             
   1.0000000000000000     
    22.0000000000000000    0.0000000000000000    0.0000000000000000
     0.0000000000000000   22.0000000000000000    0.0000000000000000
     0.0000000000000000    0.0000000000000000   22.0000000000000000
   C    N    O    H 
     3     1     2     7
Direct
  0.2277327829171707  0.3281303871102044  0.2786994766330563
  0.3188308799443919  0.2673766656535508  0.2751742355681568
  0.3362253403656483  0.2009330114959753  0.2672809249516449
  0.1652249476222658  0.3251200638495844  0.2774909233733837
  0.2573277070607080  0.3743560505085018  0.2863867591357470
  0.2519441598666680  0.2706977381136410  0.2716924682625436
  0.1429484942527379  0.3648361145874653  0.2727944058000439
  0.1449878741834471  0.2871665295807425  0.2616925272898767
  0.3330880532514399  0.2854268652840361  0.3190740324879139
  0.3377994394350474  0.2961144346148673  0.2395214665190386
  0.3856108335941675  0.1963940334375137  0.2694686263600778
  0.3163331545177962  0.1730150603528339  0.3031203311525690
  0.3208604238976000  0.1836507726838146  0.2234038224659477

  0.00000000E+00  0.00000000E+00  0.00000000E+00
  0.00000000E+00  0.00000000E+00  0.00000000E+00
  0.00000000E+00  0.00000000E+00  0.00000000E+00
  0.00000000E+00  0.00000000E+00  0.00000000E+00
  0.00000000E+00  0.00000000E+00  0.00000000E+00
  0.00000000E+00  0.00000000E+00  0.00000000E+00
  0.00000000E+00  0.00000000E+00  0.00000000E+00
  0.00000000E+00  0.00000000E+00  0.00000000E+00
  0.00000000E+00  0.00000000E+00  0.00000000E+00
  0.00000000E+00  0.00000000E+00  0.00000000E+00
  0.00000000E+00  0.00000000E+00  0.00000000E+00
  0.00000000E+00  0.00000000E+00  0.00000000E+00
  0.00000000E+00  0.00000000E+00  0.00000000E+00
