 C  H  O 
        1.0000000000
  11.373349297994871   0.000000405361433   0.015801355576551
  -0.000000608990385  17.035393284851384   0.000001314376323
  -0.286849734690887  -0.000000807003036  10.326513901905162
   64   96   64
 Direct
   0.042303786705510   0.465894063569917   0.488322129684760
   0.542303786705510   0.465894063569917   0.488322129684760
   0.042303786705510   0.965894063569917   0.488322129684760
   0.542303786705510   0.965894063569917   0.488322129684760
   0.042303786705510   0.465894063569917   0.988322129684760
   0.542303786705510   0.465894063569917   0.988322129684760
   0.042303786705510   0.965894063569917   0.988322129684760
   0.542303786705510   0.965894063569917   0.988322129684760
   0.457700212423247   0.034105936430083   0.011681382551244
   0.957700212423247   0.034105936430083   0.011681382551244
   0.457700212423247   0.534105936430083   0.011681382551244
   0.957700212423247   0.534105936430083   0.011681382551244
   0.457700212423247   0.034105936430083   0.511681382551244
   0.957700212423247   0.034105936430083   0.511681382551244
   0.457700212423247   0.534105936430083   0.511681382551244
   0.957700212423247   0.534105936430083   0.511681382551244
   0.042303786705510   0.284105936430084   0.238322129684761
   0.542303786705510   0.284105936430084   0.238322129684761
   0.042303786705510   0.784105936430084   0.238322129684761
   0.542303786705510   0.784105936430084   0.238322129684761
   0.042303786705510   0.284105936430084   0.738322129684761
   0.542303786705510   0.284105936430084   0.738322129684761
   0.042303786705510   0.784105936430084   0.738322129684761
   0.542303786705510   0.784105936430084   0.738322129684761
   0.457700212423247   0.215894063569917   0.261681382551243
   0.957700212423247   0.215894063569917   0.261681382551243
   0.457700212423247   0.715894063569917   0.261681382551243
   0.957700212423247   0.715894063569917   0.261681382551243
   0.457700212423247   0.215894063569917   0.761681382551243
   0.957700212423247   0.215894063569917   0.761681382551243
   0.457700212423247   0.715894063569917   0.761681382551243
   0.957700212423247   0.715894063569917   0.761681382551243
   0.129721042436359   0.483028025805598   0.383761991675932
   0.629721042436359   0.483028025805598   0.383761991675932
   0.129721042436359   0.983028025805598   0.383761991675932
   0.629721042436359   0.983028025805598   0.383761991675932
   0.129721042436359   0.483028025805598   0.883761991675932
   0.629721042436359   0.483028025805598   0.883761991675932
   0.129721042436359   0.983028025805598   0.883761991675932
   0.629721042436359   0.983028025805598   0.883761991675932
   0.370282956692397   0.016971974194402   0.116241520560073
   0.870282956692397   0.016971974194402   0.116241520560073
   0.370282956692397   0.516971974194402   0.116241520560073
   0.870282956692397   0.516971974194402   0.116241520560073
   0.370282956692397   0.016971974194402   0.616241520560074
   0.870282956692397   0.016971974194402   0.616241520560074
   0.370282956692397   0.516971974194402   0.616241520560074
   0.870282956692397   0.516971974194402   0.616241520560074
   0.129721042436359   0.266971974194402   0.133761991675932
   0.629721042436359   0.266971974194402   0.133761991675932
   0.129721042436359   0.766971974194402   0.133761991675932
   0.629721042436359   0.766971974194402   0.133761991675932
   0.129721042436359   0.266971974194402   0.633761991675932
   0.629721042436359   0.266971974194402   0.633761991675932
   0.129721042436359   0.766971974194402   0.633761991675932
   0.629721042436359   0.766971974194402   0.633761991675932
   0.370282956692398   0.233028025805599   0.366241520560072
   0.870282956692398   0.233028025805599   0.366241520560072
   0.370282956692398   0.733028025805599   0.366241520560072
   0.870282956692398   0.733028025805599   0.366241520560072
   0.370282956692398   0.233028025805599   0.866241520560072
   0.870282956692398   0.233028025805599   0.866241520560072
   0.370282956692398   0.733028025805599   0.866241520560072
   0.870282956692398   0.733028025805599   0.866241520560072
   0.493597372290814   0.413003297502683   0.458629734459937
   0.993597372290814   0.413003297502683   0.458629734459937
   0.493597372290814   0.913003297502683   0.458629734459937
   0.993597372290814   0.913003297502683   0.458629734459937
   0.493597372290814   0.413003297502683   0.958629734459937
   0.993597372290814   0.413003297502683   0.958629734459937
   0.493597372290814   0.913003297502683   0.958629734459937
   0.993597372290814   0.913003297502683   0.958629734459937
   0.006406626837944   0.086996702497318   0.041373777776068
   0.506406626837944   0.086996702497318   0.041373777776068
   0.006406626837944   0.586996702497318   0.041373777776068
   0.506406626837944   0.586996702497318   0.041373777776068
   0.006406626837944   0.086996702497318   0.541373777776068
   0.506406626837944   0.086996702497318   0.541373777776068
   0.006406626837944   0.586996702497318   0.541373777776068
   0.506406626837944   0.586996702497318   0.541373777776068
   0.493597372290813   0.336996702497318   0.208629734459938
   0.993597372290813   0.336996702497318   0.208629734459938
   0.493597372290813   0.836996702497318   0.208629734459938
   0.993597372290813   0.836996702497318   0.208629734459938
   0.493597372290813   0.336996702497318   0.708629734459938
   0.993597372290813   0.336996702497318   0.708629734459938
   0.493597372290813   0.836996702497318   0.708629734459938
   0.993597372290813   0.836996702497318   0.708629734459938
   0.006406626837944   0.163003297502682   0.291373777776068
   0.506406626837944   0.163003297502682   0.291373777776068
   0.006406626837944   0.663003297502682   0.291373777776068
   0.506406626837944   0.663003297502682   0.291373777776068
   0.006406626837944   0.163003297502682   0.791373777776068
   0.506406626837944   0.163003297502682   0.791373777776068
   0.006406626837944   0.663003297502682   0.791373777776068
   0.506406626837944   0.663003297502682   0.791373777776068
   0.091450829491246   0.450168304813462   0.076732143474040
   0.591450829491245   0.450168304813462   0.076732143474040
   0.091450829491246   0.950168304813462   0.076732143474040
   0.591450829491245   0.950168304813462   0.076732143474040
   0.091450829491246   0.450168304813462   0.576732143474040
   0.591450829491245   0.450168304813462   0.576732143474040
   0.091450829491246   0.950168304813462   0.576732143474040
   0.591450829491245   0.950168304813462   0.576732143474040
   0.408553169637510   0.049831695186540   0.423271368761966
   0.908553169637510   0.049831695186540   0.423271368761966
   0.408553169637510   0.549831695186540   0.423271368761966
   0.908553169637510   0.549831695186540   0.423271368761966
   0.408553169637510   0.049831695186540   0.923271368761966
   0.908553169637510   0.049831695186540   0.923271368761966
   0.408553169637510   0.549831695186540   0.923271368761966
   0.908553169637510   0.549831695186540   0.923271368761966
   0.091450829491245   0.299831695186539   0.326732143474039
   0.591450829491245   0.299831695186539   0.326732143474039
   0.091450829491245   0.799831695186539   0.326732143474039
   0.591450829491245   0.799831695186539   0.326732143474039
   0.091450829491245   0.299831695186539   0.826732143474039
   0.591450829491245   0.299831695186539   0.826732143474039
   0.091450829491245   0.799831695186539   0.826732143474039
   0.591450829491245   0.799831695186539   0.826732143474039
   0.408553169637509   0.200168304813461   0.173271368761966
   0.908553169637509   0.200168304813461   0.173271368761966
   0.408553169637509   0.700168304813461   0.173271368761966
   0.908553169637509   0.700168304813461   0.173271368761966
   0.408553169637509   0.200168304813461   0.673271368761966
   0.908553169637509   0.200168304813461   0.673271368761966
   0.408553169637509   0.700168304813461   0.673271368761966
   0.908553169637509   0.700168304813461   0.673271368761966
   0.271528890372339   0.440095966234967   0.310121730231491
   0.771528890372339   0.440095966234967   0.310121730231491
   0.271528890372339   0.940095966234967   0.310121730231491
   0.771528890372339   0.940095966234967   0.310121730231491
   0.271528890372339   0.440095966234967   0.810121730231491
   0.771528890372339   0.440095966234967   0.810121730231491
   0.271528890372339   0.940095966234967   0.810121730231491
   0.771528890372339   0.940095966234967   0.810121730231491
   0.228475108756417   0.059904033765034   0.189881782004513
   0.728475108756417   0.059904033765034   0.189881782004513
   0.228475108756417   0.559904033765034   0.189881782004513
   0.728475108756417   0.559904033765034   0.189881782004513
   0.228475108756417   0.059904033765034   0.689881782004514
   0.728475108756417   0.059904033765034   0.689881782004514
   0.228475108756417   0.559904033765034   0.689881782004514
   0.728475108756417   0.559904033765034   0.689881782004514
   0.271528890372340   0.309904033765035   0.060121730231492
   0.771528890372340   0.309904033765035   0.060121730231492
   0.271528890372340   0.809904033765035   0.060121730231492
   0.771528890372340   0.809904033765035   0.060121730231492
   0.271528890372340   0.309904033765035   0.560121730231492
   0.771528890372340   0.309904033765035   0.560121730231492
   0.271528890372340   0.809904033765035   0.560121730231492
   0.771528890372340   0.809904033765035   0.560121730231492
   0.228475108756417   0.190095966234967   0.439881782004512
   0.728475108756417   0.190095966234967   0.439881782004512
   0.228475108756417   0.690095966234967   0.439881782004512
   0.728475108756417   0.690095966234967   0.439881782004512
   0.228475108756417   0.190095966234967   0.939881782004512
   0.728475108756417   0.190095966234967   0.939881782004512
   0.228475108756417   0.690095966234967   0.939881782004512
   0.728475108756417   0.690095966234967   0.939881782004512
   0.121682373333374   0.037931635971144   0.306151342496707
   0.621682373333374   0.037931635971144   0.306151342496707
   0.121682373333374   0.537931635971144   0.306151342496707
   0.621682373333374   0.537931635971144   0.306151342496707
   0.121682373333374   0.037931635971144   0.806151342496707
   0.621682373333374   0.037931635971144   0.806151342496707
   0.121682373333374   0.537931635971144   0.806151342496707
   0.621682373333374   0.537931635971144   0.806151342496707
   0.378321625795382   0.462068364028857   0.193852169739298
   0.878321625795382   0.462068364028857   0.193852169739298
   0.378321625795382   0.962068364028857   0.193852169739298
   0.878321625795382   0.962068364028857   0.193852169739298
   0.378321625795382   0.462068364028857   0.693852169739298
   0.878321625795382   0.462068364028857   0.693852169739298
   0.378321625795382   0.962068364028857   0.693852169739298
   0.878321625795382   0.962068364028857   0.693852169739298
   0.121682373333373   0.212068364028857   0.056151342496707
   0.621682373333373   0.212068364028857   0.056151342496707
   0.121682373333373   0.712068364028857   0.056151342496707
   0.621682373333373   0.712068364028857   0.056151342496707
   0.121682373333373   0.212068364028857   0.556151342496708
   0.621682373333373   0.212068364028857   0.556151342496708
   0.121682373333373   0.712068364028857   0.556151342496708
   0.621682373333373   0.712068364028857   0.556151342496708
   0.378321625795383   0.287931635971144   0.443852169739298
   0.878321625795383   0.287931635971144   0.443852169739298
   0.378321625795383   0.787931635971144   0.443852169739298
   0.878321625795383   0.787931635971144   0.443852169739298
   0.378321625795383   0.287931635971144   0.943852169739298
   0.878321625795383   0.287931635971144   0.943852169739298
   0.378321625795383   0.787931635971144   0.943852169739298
   0.878321625795383   0.787931635971144   0.943852169739298
   0.217527418138326   0.429845716201383   0.383212654516709
   0.717527418138326   0.429845716201383   0.383212654516709
   0.217527418138326   0.929845716201382   0.383212654516709
   0.717527418138326   0.929845716201382   0.383212654516709
   0.217527418138326   0.429845716201383   0.883212654516709
   0.717527418138326   0.429845716201383   0.883212654516709
   0.217527418138326   0.929845716201382   0.883212654516709
   0.717527418138326   0.929845716201382   0.883212654516709
   0.282476580990431   0.070154283798619   0.116790857719296
   0.782476580990431   0.070154283798619   0.116790857719296
   0.282476580990431   0.570154283798619   0.116790857719296
   0.782476580990431   0.570154283798619   0.116790857719296
   0.282476580990431   0.070154283798619   0.616790857719296
   0.782476580990431   0.070154283798619   0.616790857719296
   0.282476580990431   0.570154283798619   0.616790857719296
   0.782476580990431   0.570154283798619   0.616790857719296
   0.217527418138326   0.320154283798619   0.133212654516710
   0.717527418138326   0.320154283798619   0.133212654516710
   0.217527418138326   0.820154283798619   0.133212654516710
   0.717527418138326   0.820154283798619   0.133212654516710
   0.217527418138326   0.320154283798619   0.633212654516710
   0.717527418138326   0.320154283798619   0.633212654516710
   0.217527418138326   0.820154283798619   0.633212654516710
   0.717527418138326   0.820154283798619   0.633212654516710
   0.282476580990431   0.179845716201382   0.366790857719295
   0.782476580990431   0.179845716201382   0.366790857719295
   0.282476580990431   0.679845716201382   0.366790857719295
   0.782476580990431   0.679845716201382   0.366790857719295
   0.282476580990431   0.179845716201382   0.866790857719295
   0.782476580990431   0.179845716201382   0.866790857719295
   0.282476580990431   0.679845716201382   0.866790857719295
   0.782476580990431   0.679845716201382   0.866790857719295
