 C  O  N  H                             
   1.0000000000000000     
    20.0000000000000000    0.0000000000000000    0.0000000000000000
     0.0000000000000000   20.0000000000000000    0.0000000000000000
     0.0000000000000000    0.0000000000000000   20.0000000000000000
   C    O    N    H 
     1     1     1     3
Direct
  0.2991630809899988  0.2577686068313909  0.2488730083576556
  0.3369271151881037  0.2940747977256635  0.2174873919722913
  0.2311758016751853  0.2650955049803798  0.2514169596641764
  0.2024204183317053  0.2335483946736261  0.2782106524125396
  0.2091304864063943  0.3027824206446326  0.2260262916208049
  0.3167225974086136  0.2147437751443064  0.2787501959725418

  0.00000000E+00  0.00000000E+00  0.00000000E+00
  0.00000000E+00  0.00000000E+00  0.00000000E+00
  0.00000000E+00  0.00000000E+00  0.00000000E+00
  0.00000000E+00  0.00000000E+00  0.00000000E+00
  0.00000000E+00  0.00000000E+00  0.00000000E+00
  0.00000000E+00  0.00000000E+00  0.00000000E+00
