super cell
        1.0000000000
  26.512302823553910  -0.000013934169858   0.000000415770228
  -0.000006246744613  11.769177886222275  -0.000002437164284
   0.000000388587942  -0.000004783598096  23.321526964490271
  192  384  192
 Direct
   0.168397290771970   0.231053108081895   0.052436665160348
   0.668397290771971   0.231053108081895   0.052436665160348
   0.168397290771970   0.564386441415228   0.052436665160348
   0.668397290771971   0.564386441415228   0.052436665160348
   0.168397290771970   0.897719774748562   0.052436665160348
   0.668397290771971   0.897719774748562   0.052436665160348
   0.168397290771970   0.231053108081895   0.302436665160349
   0.668397290771971   0.231053108081895   0.302436665160349
   0.168397290771970   0.564386441415228   0.302436665160349
   0.668397290771971   0.564386441415228   0.302436665160349
   0.168397290771970   0.897719774748562   0.302436665160349
   0.668397290771971   0.897719774748562   0.302436665160349
   0.168397290771970   0.231053108081895   0.552436665160349
   0.668397290771971   0.231053108081895   0.552436665160349
   0.168397290771970   0.564386441415228   0.552436665160349
   0.668397290771971   0.564386441415228   0.552436665160349
   0.168397290771970   0.897719774748562   0.552436665160349
   0.668397290771971   0.897719774748562   0.552436665160349
   0.168397290771970   0.231053108081895   0.802436665160349
   0.668397290771971   0.231053108081895   0.802436665160349
   0.168397290771970   0.564386441415228   0.802436665160349
   0.668397290771971   0.564386441415228   0.802436665160349
   0.168397290771970   0.897719774748562   0.802436665160349
   0.668397290771971   0.897719774748562   0.802436665160349
   0.331602647394927   0.102281815225865   0.177436412299956
   0.831602647394927   0.102281815225865   0.177436412299956
   0.331602647394927   0.435615148559198   0.177436412299956
   0.831602647394927   0.435615148559198   0.177436412299956
   0.331602647394927   0.768948481892532   0.177436412299956
   0.831602647394927   0.768948481892532   0.177436412299956
   0.331602647394927   0.102281815225865   0.427436412299956
   0.831602647394927   0.102281815225865   0.427436412299956
   0.331602647394927   0.435615148559198   0.427436412299956
   0.831602647394927   0.435615148559198   0.427436412299956
   0.331602647394927   0.768948481892532   0.427436412299956
   0.831602647394927   0.768948481892532   0.427436412299956
   0.331602647394927   0.102281815225865   0.677436412299956
   0.831602647394927   0.102281815225865   0.677436412299956
   0.331602647394927   0.435615148559198   0.677436412299956
   0.831602647394927   0.435615148559198   0.677436412299956
   0.331602647394927   0.768948481892532   0.677436412299956
   0.831602647394927   0.768948481892532   0.677436412299956
   0.331602647394927   0.102281815225865   0.927436412299956
   0.831602647394927   0.102281815225865   0.927436412299956
   0.331602647394927   0.435615148559198   0.927436412299956
   0.831602647394927   0.435615148559198   0.927436412299956
   0.331602647394927   0.768948481892532   0.927436412299956
   0.831602647394927   0.768948481892532   0.927436412299956
   0.418396439825429   0.268947955351905   0.052436635068112
   0.918396439825429   0.268947955351905   0.052436635068112
   0.418396439825429   0.602281288685238   0.052436635068112
   0.918396439825429   0.602281288685238   0.052436635068112
   0.418396439825429   0.935614622018572   0.052436635068112
   0.918396439825429   0.935614622018572   0.052436635068112
   0.418396439825429   0.268947955351905   0.302436635068112
   0.918396439825429   0.268947955351905   0.302436635068112
   0.418396439825429   0.602281288685238   0.302436635068112
   0.918396439825429   0.602281288685238   0.302436635068112
   0.418396439825429   0.935614622018572   0.302436635068112
   0.918396439825429   0.935614622018572   0.302436635068112
   0.418396439825429   0.268947955351905   0.552436635068112
   0.918396439825429   0.268947955351905   0.552436635068112
   0.418396439825429   0.602281288685238   0.552436635068112
   0.918396439825429   0.602281288685238   0.552436635068112
   0.418396439825429   0.935614622018572   0.552436635068112
   0.918396439825429   0.935614622018572   0.552436635068112
   0.418396439825429   0.268947955351905   0.802436635068112
   0.918396439825429   0.268947955351905   0.802436635068112
   0.418396439825429   0.602281288685238   0.802436635068112
   0.918396439825429   0.602281288685238   0.802436635068112
   0.418396439825429   0.935614622018572   0.802436635068112
   0.918396439825429   0.935614622018572   0.802436635068112
   0.081603382525366   0.064387084004333   0.177436901204309
   0.581603382525365   0.064387084004333   0.177436901204309
   0.081603382525366   0.397720417337666   0.177436901204309
   0.581603382525365   0.397720417337666   0.177436901204309
   0.081603382525366   0.731053750671000   0.177436901204309
   0.581603382525365   0.731053750671000   0.177436901204309
   0.081603382525366   0.064387084004333   0.427436901204309
   0.581603382525365   0.064387084004333   0.427436901204309
   0.081603382525366   0.397720417337666   0.427436901204309
   0.581603382525365   0.397720417337666   0.427436901204309
   0.081603382525366   0.731053750671000   0.427436901204309
   0.581603382525365   0.731053750671000   0.427436901204309
   0.081603382525366   0.064387084004333   0.677436901204310
   0.581603382525365   0.064387084004333   0.677436901204310
   0.081603382525366   0.397720417337666   0.677436901204310
   0.581603382525365   0.397720417337666   0.677436901204310
   0.081603382525366   0.731053750671000   0.677436901204310
   0.581603382525365   0.731053750671000   0.677436901204310
   0.081603382525366   0.064387084004333   0.927436901204310
   0.581603382525365   0.064387084004333   0.927436901204310
   0.081603382525366   0.397720417337666   0.927436901204310
   0.581603382525365   0.397720417337666   0.927436901204310
   0.081603382525366   0.731053750671000   0.927436901204310
   0.581603382525365   0.731053750671000   0.927436901204310
   0.205662846614644   0.204803317045986   0.099387476263329
   0.705662846614644   0.204803317045986   0.099387476263329
   0.205662846614644   0.538136650379319   0.099387476263329
   0.705662846614644   0.538136650379319   0.099387476263329
   0.205662846614644   0.871469983712653   0.099387476263329
   0.705662846614644   0.871469983712653   0.099387476263329
   0.205662846614644   0.204803317045986   0.349387476263329
   0.705662846614644   0.204803317045986   0.349387476263329
   0.205662846614644   0.538136650379319   0.349387476263329
   0.705662846614644   0.538136650379319   0.349387476263329
   0.205662846614644   0.871469983712653   0.349387476263329
   0.705662846614644   0.871469983712653   0.349387476263329
   0.205662846614644   0.204803317045986   0.599387476263330
   0.705662846614644   0.204803317045986   0.599387476263330
   0.205662846614644   0.538136650379319   0.599387476263330
   0.705662846614644   0.538136650379319   0.599387476263330
   0.205662846614644   0.871469983712653   0.599387476263330
   0.705662846614644   0.871469983712653   0.599387476263330
   0.205662846614644   0.204803317045986   0.849387476263330
   0.705662846614644   0.204803317045986   0.849387476263330
   0.205662846614644   0.538136650379319   0.849387476263330
   0.705662846614644   0.538136650379319   0.849387476263330
   0.205662846614644   0.871469983712653   0.849387476263330
   0.705662846614644   0.871469983712653   0.849387476263330
   0.294336946031805   0.128531460352465   0.224387378109020
   0.794336946031805   0.128531460352465   0.224387378109020
   0.294336946031805   0.461864793685798   0.224387378109020
   0.794336946031805   0.461864793685798   0.224387378109020
   0.294336946031805   0.795198127019132   0.224387378109020
   0.794336946031805   0.795198127019132   0.224387378109020
   0.294336946031805   0.128531460352465   0.474387378109020
   0.794336946031805   0.128531460352465   0.474387378109020
   0.294336946031805   0.461864793685798   0.474387378109020
   0.794336946031805   0.461864793685798   0.474387378109020
   0.294336946031805   0.795198127019132   0.474387378109020
   0.794336946031805   0.795198127019132   0.474387378109020
   0.294336946031805   0.128531460352465   0.724387378109020
   0.794336946031805   0.128531460352465   0.724387378109020
   0.294336946031805   0.461864793685798   0.724387378109020
   0.794336946031805   0.461864793685798   0.724387378109020
   0.294336946031805   0.795198127019132   0.724387378109020
   0.794336946031805   0.795198127019132   0.724387378109020
   0.294336946031805   0.128531460352465   0.974387378109020
   0.794336946031805   0.128531460352465   0.974387378109020
   0.294336946031805   0.461864793685798   0.974387378109020
   0.794336946031805   0.461864793685798   0.974387378109020
   0.294336946031805   0.795198127019132   0.974387378109020
   0.794336946031805   0.795198127019132   0.974387378109020
   0.455662251200025   0.295197648208711   0.099387563815320
   0.955662251200025   0.295197648208711   0.099387563815320
   0.455662251200025   0.628530981542044   0.099387563815320
   0.955662251200025   0.628530981542044   0.099387563815320
   0.455662251200025   0.961864314875378   0.099387563815320
   0.955662251200025   0.961864314875378   0.099387563815320
   0.455662251200025   0.295197648208711   0.349387563815320
   0.955662251200025   0.295197648208711   0.349387563815320
   0.455662251200025   0.628530981542044   0.349387563815320
   0.955662251200025   0.628530981542044   0.349387563815320
   0.455662251200025   0.961864314875378   0.349387563815320
   0.955662251200025   0.961864314875378   0.349387563815320
   0.455662251200025   0.295197648208711   0.599387563815320
   0.955662251200025   0.295197648208711   0.599387563815320
   0.455662251200025   0.628530981542044   0.599387563815320
   0.955662251200025   0.628530981542044   0.599387563815320
   0.455662251200025   0.961864314875378   0.599387563815320
   0.955662251200025   0.961864314875378   0.599387563815320
   0.455662251200025   0.295197648208711   0.849387563815320
   0.955662251200025   0.295197648208711   0.849387563815320
   0.455662251200025   0.628530981542044   0.849387563815320
   0.955662251200025   0.628530981542044   0.849387563815320
   0.455662251200025   0.961864314875378   0.849387563815320
   0.955662251200025   0.961864314875378   0.849387563815320
   0.044337509986310   0.038137126210122   0.224387761351725
   0.544337509986309   0.038137126210122   0.224387761351725
   0.044337509986310   0.371470459543455   0.224387761351725
   0.544337509986309   0.371470459543455   0.224387761351725
   0.044337509986310   0.704803792876789   0.224387761351725
   0.544337509986309   0.704803792876789   0.224387761351725
   0.044337509986310   0.038137126210122   0.474387761351725
   0.544337509986309   0.038137126210122   0.474387761351725
   0.044337509986310   0.371470459543455   0.474387761351725
   0.544337509986309   0.371470459543455   0.474387761351725
   0.044337509986310   0.704803792876789   0.474387761351725
   0.544337509986309   0.704803792876789   0.474387761351725
   0.044337509986310   0.038137126210122   0.724387761351725
   0.544337509986309   0.038137126210122   0.724387761351725
   0.044337509986310   0.371470459543455   0.724387761351725
   0.544337509986309   0.371470459543455   0.724387761351725
   0.044337509986310   0.704803792876789   0.724387761351725
   0.544337509986309   0.704803792876789   0.724387761351725
   0.044337509986310   0.038137126210122   0.974387761351725
   0.544337509986309   0.038137126210122   0.974387761351725
   0.044337509986310   0.371470459543455   0.974387761351725
   0.544337509986309   0.371470459543455   0.974387761351725
   0.044337509986310   0.704803792876789   0.974387761351725
   0.544337509986309   0.704803792876789   0.974387761351725
   0.161617533543634   0.313316208168648   0.230834416774614
   0.661617533543634   0.313316208168648   0.230834416774614
   0.161617533543634   0.646649541501981   0.230834416774614
   0.661617533543634   0.646649541501981   0.230834416774614
   0.161617533543634   0.979982874835315   0.230834416774614
   0.661617533543634   0.979982874835315   0.230834416774614
   0.161617533543634   0.313316208168648   0.480834416774614
   0.661617533543634   0.313316208168648   0.480834416774614
   0.161617533543634   0.646649541501981   0.480834416774614
   0.661617533543634   0.646649541501981   0.480834416774614
   0.161617533543634   0.979982874835315   0.480834416774614
   0.661617533543634   0.979982874835315   0.480834416774614
   0.161617533543634   0.313316208168648   0.730834416774614
   0.661617533543634   0.313316208168648   0.730834416774614
   0.161617533543634   0.646649541501981   0.730834416774614
   0.661617533543634   0.646649541501981   0.730834416774614
   0.161617533543634   0.979982874835315   0.730834416774614
   0.661617533543634   0.979982874835315   0.730834416774614
   0.161617533543634   0.313316208168648   0.980834416774614
   0.661617533543634   0.313316208168648   0.980834416774614
   0.161617533543634   0.646649541501981   0.980834416774614
   0.661617533543634   0.646649541501981   0.980834416774614
   0.161617533543634   0.979982874835315   0.980834416774614
   0.661617533543634   0.979982874835315   0.980834416774614
   0.338382301736154   0.020018609133518   0.105834165898465
   0.838382301736154   0.020018609133518   0.105834165898465
   0.338382301736154   0.353351942466851   0.105834165898465
   0.838382301736154   0.353351942466851   0.105834165898465
   0.338382301736154   0.686685275800185   0.105834165898465
   0.838382301736154   0.686685275800185   0.105834165898465
   0.338382301736154   0.020018609133518   0.355834165898465
   0.838382301736154   0.020018609133518   0.355834165898465
   0.338382301736154   0.353351942466851   0.355834165898465
   0.838382301736154   0.353351942466851   0.355834165898465
   0.338382301736154   0.686685275800185   0.355834165898465
   0.838382301736154   0.686685275800185   0.355834165898465
   0.338382301736154   0.020018609133518   0.605834165898465
   0.838382301736154   0.020018609133518   0.605834165898465
   0.338382301736154   0.353351942466851   0.605834165898465
   0.838382301736154   0.353351942466851   0.605834165898465
   0.338382301736154   0.686685275800185   0.605834165898465
   0.838382301736154   0.686685275800185   0.605834165898465
   0.338382301736154   0.020018609133518   0.855834165898465
   0.838382301736154   0.020018609133518   0.855834165898465
   0.338382301736154   0.353351942466851   0.855834165898465
   0.838382301736154   0.353351942466851   0.855834165898465
   0.338382301736154   0.686685275800185   0.855834165898465
   0.838382301736154   0.686685275800185   0.855834165898465
   0.411616642408770   0.186685147752399   0.230834181383592
   0.911616642408770   0.186685147752399   0.230834181383592
   0.411616642408770   0.520018481085732   0.230834181383592
   0.911616642408770   0.520018481085732   0.230834181383592
   0.411616642408770   0.853351814419066   0.230834181383592
   0.911616642408770   0.853351814419066   0.230834181383592
   0.411616642408770   0.186685147752399   0.480834181383592
   0.911616642408770   0.186685147752399   0.480834181383592
   0.411616642408770   0.520018481085732   0.480834181383592
   0.911616642408770   0.520018481085732   0.480834181383592
   0.411616642408770   0.853351814419066   0.480834181383592
   0.911616642408770   0.853351814419066   0.480834181383592
   0.411616642408770   0.186685147752399   0.730834181383592
   0.911616642408770   0.186685147752399   0.730834181383592
   0.411616642408770   0.520018481085732   0.730834181383592
   0.911616642408770   0.520018481085732   0.730834181383592
   0.411616642408770   0.853351814419066   0.730834181383592
   0.911616642408770   0.853351814419066   0.730834181383592
   0.411616642408770   0.186685147752399   0.980834181383592
   0.911616642408770   0.186685147752399   0.980834181383592
   0.411616642408770   0.520018481085732   0.980834181383592
   0.911616642408770   0.520018481085732   0.980834181383592
   0.411616642408770   0.853351814419066   0.980834181383592
   0.911616642408770   0.853351814419066   0.980834181383592
   0.088383155635281   0.146650055396343   0.105834467323206
   0.588383155635281   0.146650055396343   0.105834467323206
   0.088383155635281   0.479983388729676   0.105834467323206
   0.588383155635281   0.479983388729676   0.105834467323206
   0.088383155635281   0.813316722063010   0.105834467323206
   0.588383155635281   0.813316722063010   0.105834467323206
   0.088383155635281   0.146650055396343   0.355834467323206
   0.588383155635281   0.146650055396343   0.355834467323206
   0.088383155635281   0.479983388729676   0.355834467323206
   0.588383155635281   0.479983388729676   0.355834467323206
   0.088383155635281   0.813316722063010   0.355834467323206
   0.588383155635281   0.813316722063010   0.355834467323206
   0.088383155635281   0.146650055396343   0.605834467323205
   0.588383155635281   0.146650055396343   0.605834467323205
   0.088383155635281   0.479983388729676   0.605834467323205
   0.588383155635281   0.479983388729676   0.605834467323205
   0.088383155635281   0.813316722063010   0.605834467323205
   0.588383155635281   0.813316722063010   0.605834467323205
   0.088383155635281   0.146650055396343   0.855834467323205
   0.588383155635281   0.146650055396343   0.855834467323205
   0.088383155635281   0.479983388729676   0.855834467323205
   0.588383155635281   0.479983388729676   0.855834467323205
   0.088383155635281   0.813316722063010   0.855834467323205
   0.588383155635281   0.813316722063010   0.855834467323205
   0.187126222372388   0.159416832764424   0.134078893512878
   0.687126222372388   0.159416832764424   0.134078893512878
   0.187126222372388   0.492750166097757   0.134078893512878
   0.687126222372388   0.492750166097757   0.134078893512878
   0.187126222372388   0.826083499431091   0.134078893512878
   0.687126222372388   0.826083499431091   0.134078893512878
   0.187126222372388   0.159416832764424   0.384078893512878
   0.687126222372388   0.159416832764424   0.384078893512878
   0.187126222372388   0.492750166097757   0.384078893512878
   0.687126222372388   0.492750166097757   0.384078893512878
   0.187126222372388   0.826083499431091   0.384078893512878
   0.687126222372388   0.826083499431091   0.384078893512878
   0.187126222372388   0.159416832764424   0.634078893512878
   0.687126222372388   0.159416832764424   0.634078893512878
   0.187126222372388   0.492750166097757   0.634078893512878
   0.687126222372388   0.492750166097757   0.634078893512878
   0.187126222372388   0.826083499431091   0.634078893512878
   0.687126222372388   0.826083499431091   0.634078893512878
   0.187126222372388   0.159416832764424   0.884078893512878
   0.687126222372388   0.159416832764424   0.884078893512878
   0.187126222372388   0.492750166097757   0.884078893512878
   0.687126222372388   0.492750166097757   0.884078893512878
   0.187126222372388   0.826083499431091   0.884078893512878
   0.687126222372388   0.826083499431091   0.884078893512878
   0.312873620132151   0.173917860069544   0.009078697320424
   0.812873620132151   0.173917860069544   0.009078697320424
   0.312873620132151   0.507251193402877   0.009078697320424
   0.812873620132151   0.507251193402877   0.009078697320424
   0.312873620132151   0.840584526736211   0.009078697320424
   0.812873620132151   0.840584526736211   0.009078697320424
   0.312873620132151   0.173917860069544   0.259078697320424
   0.812873620132151   0.173917860069544   0.259078697320424
   0.312873620132151   0.507251193402877   0.259078697320424
   0.812873620132151   0.507251193402877   0.259078697320424
   0.312873620132151   0.840584526736211   0.259078697320424
   0.812873620132151   0.840584526736211   0.259078697320424
   0.312873620132151   0.173917860069544   0.509078697320424
   0.812873620132151   0.173917860069544   0.509078697320424
   0.312873620132151   0.507251193402877   0.509078697320424
   0.812873620132151   0.507251193402877   0.509078697320424
   0.312873620132151   0.840584526736211   0.509078697320424
   0.812873620132151   0.840584526736211   0.509078697320424
   0.312873620132151   0.173917860069544   0.759078697320424
   0.812873620132151   0.173917860069544   0.759078697320424
   0.312873620132151   0.507251193402877   0.759078697320424
   0.812873620132151   0.507251193402877   0.759078697320424
   0.312873620132151   0.840584526736211   0.759078697320424
   0.812873620132151   0.840584526736211   0.759078697320424
   0.437125684505894   0.007250849796255   0.134078856176180
   0.937125684505894   0.007250849796255   0.134078856176180
   0.437125684505894   0.340584183129588   0.134078856176180
   0.937125684505894   0.340584183129588   0.134078856176180
   0.437125684505894   0.673917516462922   0.134078856176180
   0.937125684505894   0.673917516462922   0.134078856176180
   0.437125684505894   0.007250849796255   0.384078856176180
   0.937125684505894   0.007250849796255   0.384078856176180
   0.437125684505894   0.340584183129588   0.384078856176180
   0.937125684505894   0.340584183129588   0.384078856176180
   0.437125684505894   0.673917516462922   0.384078856176180
   0.937125684505894   0.673917516462922   0.384078856176180
   0.437125684505894   0.007250849796255   0.634078856176180
   0.937125684505894   0.007250849796255   0.634078856176180
   0.437125684505894   0.340584183129588   0.634078856176180
   0.937125684505894   0.340584183129588   0.634078856176180
   0.437125684505894   0.673917516462922   0.634078856176180
   0.937125684505894   0.673917516462922   0.634078856176180
   0.437125684505894   0.007250849796255   0.884078856176180
   0.937125684505894   0.007250849796255   0.884078856176180
   0.437125684505894   0.340584183129588   0.884078856176180
   0.937125684505894   0.340584183129588   0.884078856176180
   0.437125684505894   0.673917516462922   0.884078856176180
   0.937125684505894   0.673917516462922   0.884078856176180
   0.062874092988043   0.326083933280119   0.009079037118486
   0.562874092988043   0.326083933280119   0.009079037118486
   0.062874092988043   0.659417266613452   0.009079037118486
   0.562874092988043   0.659417266613452   0.009079037118486
   0.062874092988043   0.992750599946786   0.009079037118486
   0.562874092988043   0.992750599946786   0.009079037118486
   0.062874092988043   0.326083933280119   0.259079037118486
   0.562874092988043   0.326083933280119   0.259079037118486
   0.062874092988043   0.659417266613452   0.259079037118486
   0.562874092988043   0.659417266613452   0.259079037118486
   0.062874092988043   0.992750599946786   0.259079037118486
   0.562874092988043   0.992750599946786   0.259079037118486
   0.062874092988043   0.326083933280119   0.509079037118486
   0.562874092988043   0.326083933280119   0.509079037118486
   0.062874092988043   0.659417266613452   0.509079037118486
   0.562874092988043   0.659417266613452   0.509079037118486
   0.062874092988043   0.992750599946786   0.509079037118486
   0.562874092988043   0.992750599946786   0.509079037118486
   0.062874092988043   0.326083933280119   0.759079037118486
   0.562874092988043   0.326083933280119   0.759079037118486
   0.062874092988043   0.659417266613452   0.759079037118486
   0.562874092988043   0.659417266613452   0.759079037118486
   0.062874092988043   0.992750599946786   0.759079037118486
   0.562874092988043   0.992750599946786   0.759079037118486
   0.236077202589747   0.152514647643173   0.081905928097413
   0.736077202589748   0.152514647643173   0.081905928097413
   0.236077202589747   0.485847980976506   0.081905928097413
   0.736077202589748   0.485847980976506   0.081905928097413
   0.236077202589747   0.819181314309840   0.081905928097413
   0.736077202589748   0.819181314309840   0.081905928097413
   0.236077202589747   0.152514647643173   0.331905928097413
   0.736077202589748   0.152514647643173   0.331905928097413
   0.236077202589747   0.485847980976506   0.331905928097413
   0.736077202589748   0.485847980976506   0.331905928097413
   0.236077202589747   0.819181314309840   0.331905928097413
   0.736077202589748   0.819181314309840   0.331905928097413
   0.236077202589747   0.152514647643173   0.581905928097413
   0.736077202589748   0.152514647643173   0.581905928097413
   0.236077202589747   0.485847980976506   0.581905928097413
   0.736077202589748   0.485847980976506   0.581905928097413
   0.236077202589747   0.819181314309840   0.581905928097413
   0.736077202589748   0.819181314309840   0.581905928097413
   0.236077202589747   0.152514647643173   0.831905928097413
   0.736077202589748   0.152514647643173   0.831905928097413
   0.236077202589747   0.485847980976506   0.831905928097413
   0.736077202589748   0.485847980976506   0.831905928097413
   0.236077202589747   0.819181314309840   0.831905928097413
   0.736077202589748   0.819181314309840   0.831905928097413
   0.263922596812219   0.180820059848780   0.206905861872320
   0.763922596812219   0.180820059848780   0.206905861872320
   0.263922596812219   0.514153393182113   0.206905861872320
   0.763922596812219   0.514153393182113   0.206905861872320
   0.263922596812219   0.847486726515447   0.206905861872320
   0.763922596812219   0.847486726515447   0.206905861872320
   0.263922596812219   0.180820059848780   0.456905861872320
   0.763922596812219   0.180820059848780   0.456905861872320
   0.263922596812219   0.514153393182113   0.456905861872320
   0.763922596812219   0.514153393182113   0.456905861872320
   0.263922596812219   0.847486726515447   0.456905861872320
   0.763922596812219   0.847486726515447   0.456905861872320
   0.263922596812219   0.180820059848780   0.706905861872320
   0.763922596812219   0.180820059848780   0.706905861872320
   0.263922596812219   0.514153393182113   0.706905861872320
   0.763922596812219   0.514153393182113   0.706905861872320
   0.263922596812219   0.847486726515447   0.706905861872320
   0.763922596812219   0.847486726515447   0.706905861872320
   0.263922596812219   0.180820059848780   0.956905861872320
   0.763922596812219   0.180820059848780   0.956905861872320
   0.263922596812219   0.514153393182113   0.956905861872320
   0.763922596812219   0.514153393182113   0.956905861872320
   0.263922596812219   0.847486726515447   0.956905861872320
   0.763922596812219   0.847486726515447   0.956905861872320
   0.486076749904601   0.014152788290005   0.081906023256439
   0.986076749904601   0.014152788290005   0.081906023256439
   0.486076749904601   0.347486121623338   0.081906023256439
   0.986076749904601   0.347486121623338   0.081906023256439
   0.486076749904601   0.680819454956672   0.081906023256439
   0.986076749904601   0.680819454956672   0.081906023256439
   0.486076749904601   0.014152788290005   0.331906023256438
   0.986076749904601   0.014152788290005   0.331906023256438
   0.486076749904601   0.347486121623338   0.331906023256438
   0.986076749904601   0.347486121623338   0.331906023256438
   0.486076749904601   0.680819454956672   0.331906023256438
   0.986076749904601   0.680819454956672   0.331906023256438
   0.486076749904601   0.014152788290005   0.581906023256438
   0.986076749904601   0.014152788290005   0.581906023256438
   0.486076749904601   0.347486121623338   0.581906023256438
   0.986076749904601   0.347486121623338   0.581906023256438
   0.486076749904601   0.680819454956672   0.581906023256438
   0.986076749904601   0.680819454956672   0.581906023256438
   0.486076749904601   0.014152788290005   0.831906023256438
   0.986076749904601   0.014152788290005   0.831906023256438
   0.486076749904601   0.347486121623338   0.831906023256438
   0.986076749904601   0.347486121623338   0.831906023256438
   0.486076749904601   0.680819454956672   0.831906023256438
   0.986076749904601   0.680819454956672   0.831906023256438
   0.013923113512728   0.319181953886779   0.206906146206016
   0.513923113512728   0.319181953886779   0.206906146206016
   0.013923113512728   0.652515287220112   0.206906146206016
   0.513923113512728   0.652515287220112   0.206906146206016
   0.013923113512728   0.985848620553446   0.206906146206016
   0.513923113512728   0.985848620553446   0.206906146206016
   0.013923113512728   0.319181953886779   0.456906146206016
   0.513923113512728   0.319181953886779   0.456906146206016
   0.013923113512728   0.652515287220112   0.456906146206016
   0.513923113512728   0.652515287220112   0.456906146206016
   0.013923113512728   0.985848620553446   0.456906146206016
   0.513923113512728   0.985848620553446   0.456906146206016
   0.013923113512728   0.319181953886779   0.706906146206016
   0.513923113512728   0.319181953886779   0.706906146206016
   0.013923113512728   0.652515287220112   0.706906146206016
   0.513923113512728   0.652515287220112   0.706906146206016
   0.013923113512728   0.985848620553446   0.706906146206016
   0.513923113512728   0.985848620553446   0.706906146206016
   0.013923113512728   0.319181953886779   0.956906146206016
   0.513923113512728   0.319181953886779   0.956906146206016
   0.013923113512728   0.652515287220112   0.956906146206016
   0.513923113512728   0.652515287220112   0.956906146206016
   0.013923113512728   0.985848620553446   0.956906146206016
   0.513923113512728   0.985848620553446   0.956906146206016
   0.222761438052537   0.283125995644257   0.115148624164624
   0.722761438052536   0.283125995644257   0.115148624164624
   0.222761438052537   0.616459328977590   0.115148624164624
   0.722761438052536   0.616459328977590   0.115148624164624
   0.222761438052537   0.949792662310924   0.115148624164624
   0.722761438052536   0.949792662310924   0.115148624164624
   0.222761438052537   0.283125995644257   0.365148624164624