 C  H  N  O 
 1.0000000000000000
    14.4160000000000004    0.0000000000000000    0.0000000000000000
     0.0000000000000000    9.0410000000000004    0.0000000000000000
     1.0548800000000003    0.0000000000000000   13.7537599999999998
 C   H   N   O  
  32  96  32  32
Cartesian
  0.8686833511449711  0.4979610650858047  1.7695677052468586
  1.4607883774627866  8.5430389349141951  5.1072995576547831
  0.2960433599847274  5.0183648179668268  1.6688527188482496
  2.0333846638287763  4.0224321194606887  5.2080801371034919
  4.4726833511449708  0.4979610650858047  1.7695677052468586
  5.0647883774627864  8.5430389349141951  5.1072995576547831
  3.9000433599847275  5.0183648179668268  1.6688527188482496
  5.6373846638287768  4.0224321194606887  5.2080801371034919
  3.1981233511449711  0.4979610650858047  8.6464477052468585
  3.7902283774627858  8.5430389349141951 11.9841795576547838
  2.6254833599847274  5.0183648179668268  8.5457327188482495
  4.3628246638287767  4.0224321194606887 12.0849601371034900
  8.0766833511449718  0.4979610650858047  1.7695677052468586
  8.6687883774627874  8.5430389349141951  5.1072995576547831
  7.5040433599847276  5.0183648179668268  1.6688527188482496
  9.2413846638287769  4.0224321194606887  5.2080801371034919
  6.8021233511449708  0.4979610650858047  8.6464477052468585
  7.3942283774627873  8.5430389349141951 11.9841795576547838
  6.2294833599847284  5.0183648179668268  8.5457327188482495
  7.9668246638287767  4.0224321194606887 12.0849601371034900
 11.6806833511449710  0.4979610650858047  1.7695677052468586
 12.2727883774627884  8.5430389349141951  5.1072995576547831
 11.1080433599847268  5.0183648179668268  1.6688527188482496
 12.8453846638287761  4.0224321194606887  5.2080801371034919
 10.4061233511449718  0.4979610650858047  8.6464477052468585
 10.9982283774627874  8.5430389349141951 11.9841795576547838
  9.8334833599847276  5.0183648179668268  8.5457327188482495
 11.5708246638287768  4.0224321194606887 12.0849601371034900
 14.0101233511449728  0.4979610650858047  8.6464477052468585
 14.6022283774627883  8.5430389349141951 11.9841795576547838
 13.4374833599847285  5.0183648179668268  8.5457327188482495
 15.1748246638287778  4.0224321194606887 12.0849601371034900
  0.4981209091976488  2.3359976854252862  0.9793304321977159
  1.8313241296021392  6.7049782254145880  5.8976008770054378
  0.6666249314867581  6.8564614731628319  2.4590989891705060
  1.6627800440036804  2.1843735382387064  4.4178439482816998
 14.5167018759357980  1.1915705917485706  6.7857660724832147
  2.2287679007072123  7.8494322757517905  0.0911139275167857
 14.2054649126500028  5.7120324137930334  3.5295064749244496
  2.5399520162318003  3.3288208737419920  3.3474040279717463
  0.3343362911803380  0.8174191169181294  2.6836951884376612
  1.9951533221969247  8.2235593789675914  4.1931847981537471
  0.8304379105874679  5.3378119244925850  0.7547383502780919
  1.4990229532101109  3.7030037059497247  6.1222151620910701
  4.1021209091976489  2.3359976854252862  0.9793304321977159
  5.4353241296021393  6.7049782254145880  5.8976008770054378
  4.2706249314867577  6.8564614731628319  2.4590989891705060
  5.2667800440036805  2.1843735382387064  4.4178439482816998
  3.7047018759357964  1.1915705917485706  6.7857660724832147
  5.8327679007072124  7.8494322757517905  0.0911139275167857
  3.3934649126500016  5.7120324137930334  3.5295064749244496
  6.1439520162318004  3.3288208737419920  3.3474040279717463
  3.9383362911803377  0.8174191169181294  2.6836951884376612
  5.5991533221969245  8.2235593789675914  4.1931847981537471
  4.4344379105874676  5.3378119244925850  0.7547383502780919
  5.1030229532101110  3.7030037059497247  6.1222151620910701
  2.8275609091976484  2.3359976854252862  7.8562104321977166
  4.1607641296021391  6.7049782254145880 12.7744808770054377
  2.9960649314867580  6.8564614731628319  9.3359789891705063
  3.9922200440036799  2.1843735382387064 11.2947239482817015
  2.4301418759357962  1.1915705917485706 13.6626460724832146
  4.5582079007072132  7.8494322757517905  6.9679939275167868
  2.1189049126500015  5.7120324137930334 10.4063864749244495
  4.8693920162318003  3.3288208737419920 10.2242840279717448
  2.6637762911803375  0.8174191169181294  9.5605751884376602
  4.3245933221969244  8.2235593789675914 11.0700647981537479
  3.1598779105874675  5.3378119244925850  7.6316183502780914
  3.8284629532101109  3.7030037059497247 12.9990951620910717
  7.7061209091976490  2.3359976854252862  0.9793304321977159
  9.0393241296021394  6.7049782254145880  5.8976008770054378
  7.8746249314867587  6.8564614731628319  2.4590989891705060
  8.8707800440036806  2.1843735382387064  4.4178439482816998
  7.3087018759357960  1.1915705917485706  6.7857660724832147
  9.4367679007072134  7.8494322757517905  0.0911139275167857
  6.9974649126500017  5.7120324137930334  3.5295064749244496
  9.7479520162317996  3.3288208737419920  3.3474040279717463
  7.5423362911803382  0.8174191169181294  2.6836951884376612
  9.2031533221969255  8.2235593789675914  4.1931847981537471
  8.0384379105874686  5.3378119244925850  0.7547383502780919
  8.7070229532101102  3.7030037059497247  6.1222151620910701
  6.4315609091976498  2.3359976854252862  7.8562104321977166
  7.7647641296021401  6.7049782254145880 12.7744808770054377
  6.6000649314867594  6.8564614731628319  9.3359789891705063
  7.5962200440036813  2.1843735382387064 11.2947239482817015
  6.0341418759357968  1.1915705917485706 13.6626460724832146
  8.1622079007072106  7.8494322757517905  6.9679939275167868
  5.7229049126500025  5.7120324137930334 10.4063864749244495
  8.4733920162318022  3.3288208737419920 10.2242840279717448
  6.2677762911803390  0.8174191169181294  9.5605751884376602
  7.9285933221969263  8.2235593789675914 11.0700647981537479
  6.7638779105874693  5.3378119244925850  7.6316183502780914
  7.4324629532101101  3.7030037059497247 12.9990951620910717
 11.3101209091976500  2.3359976854252862  0.9793304321977159
 12.6433241296021404  6.7049782254145880  5.8976008770054378
 11.4786249314867597  6.8564614731628319  2.4590989891705060
 12.4747800440036816  2.1843735382387064  4.4178439482816998
 10.9127018759357952  1.1915705917485706  6.7857660724832147
 13.0407679007072108  7.8494322757517905  0.0911139275167857
 10.6014649126500036  5.7120324137930334  3.5295064749244496
 13.3519520162318024  3.3288208737419920  3.3474040279717463
 11.1463362911803383  0.8174191169181294  2.6836951884376612
 12.8071533221969265  8.2235593789675914  4.1931847981537471
 11.6424379105874696  5.3378119244925850  0.7547383502780919
 12.3110229532101130  3.7030037059497247  6.1222151620910701
 10.0355609091976472  2.3359976854252862  7.8562104321977166
 11.3687641296021393  6.7049782254145880 12.7744808770054377
 10.2040649314867586  6.8564614731628319  9.3359789891705063
 11.2002200440036805  2.1843735382387064 11.2947239482817015
  9.6381418759357960  1.1915705917485706 13.6626460724832146
 11.7662079007072116  7.8494322757517905  6.9679939275167868
  9.3269049126500025  5.7120324137930334 10.4063864749244495
 12.0773920162318014  3.3288208737419920 10.2242840279717448
  9.8717762911803373  0.8174191169181294  9.5605751884376602
 11.5325933221969255  8.2235593789675914 11.0700647981537479
 10.3678779105874685  5.3378119244925850  7.6316183502780914
 11.0364629532101119  3.7030037059497247 12.9990951620910717
 13.6395609091976500  2.3359976854252862  7.8562104321977166
 14.9727641296021403  6.7049782254145880 12.7744808770054377
 13.8080649314867596  6.8564614731628319  9.3359789891705063
 14.8042200440036815  2.1843735382387064 11.2947239482817015
 13.2421418759357969  1.1915705917485706 13.6626460724832146
  0.9542079007072136  7.8494322757517905  6.9679939275167868
 12.9309049126500035  5.7120324137930334 10.4063864749244495
  1.2653920162318015  3.3288208737419920 10.2242840279717448
 13.4757762911803383  0.8174191169181294  9.5605751884376602
 15.1365933221969264  8.2235593789675914 11.0700647981537479
 13.9718779105874695  5.3378119244925850  7.6316183502780914
 14.6404629532101129  3.7030037059497247 12.9990951620910717
  0.9120033290655949  1.4104486854768383  0.8048901969769749
  1.4174731070314557  7.6305447879514201  6.0720016785490918
  0.2526933213247339  5.9308901047054645  2.6335388206867552
  2.0767137061252825  3.1099465975320051  4.2433901358889274
  4.5160033290655948  1.4104486854768383  0.8048901969769749
  5.0214731070314560  7.6305447879514201  6.0720016785490918
  3.8566933213247339  5.9308901047054645  2.6335388206867552
  5.6807137061252826  3.1099465975320051  4.2433901358889274
  3.2414433290655942  1.4104486854768383  7.6817701969769745
  3.7469131070314554  7.6305447879514201 12.9488816785490926
  2.5821333213247333  5.9308901047054645  9.5104188206867555
  4.4061537061252825  3.1099465975320051 11.1202701358889282
  8.1200033290655949  1.4104486854768383  0.8048901969769749
  8.6254731070314534  7.6305447879514201  6.0720016785490918
  7.4606933213247340  5.9308901047054645  2.6335388206867552
  9.2847137061252827  3.1099465975320051  4.2433901358889274
  6.8454433290655956  1.4104486854768383  7.6817701969769745
  7.3509131070314568  7.6305447879514201 12.9488816785490926
  6.1861333213247347  5.9308901047054645  9.5104188206867555
  8.0101537061252834  3.1099465975320051 11.1202701358889282
 11.7240033290655958  1.4104486854768383  0.8048901969769749
 12.2294731070314562  7.6305447879514201  6.0720016785490918
 11.0646933213247358  5.9308901047054645  2.6335388206867552
 12.8887137061252837  3.1099465975320051  4.2433901358889274
 10.4494433290655948  1.4104486854768383  7.6817701969769745
 10.9549131070314552  7.6305447879514201 12.9488816785490926
  9.7901333213247348  5.9308901047054645  9.5104188206867555
 11.6141537061252826  3.1099465975320051 11.1202701358889282
 14.0534433290655958  1.4104486854768383  7.6817701969769745
 14.5589131070314561  7.6305447879514201 12.9488816785490926
 13.3941333213247340  5.9308901047054645  9.5104188206867555
 15.2181537061252818  3.1099465975320051 11.1202701358889282
  1.3909916128808877  8.4010345772064952  1.7075097375864881
  0.9385031840194351  0.6399427124416430  5.1693669305452694
 14.1897256896658153  3.8805059150093579  1.7309378599381482
  2.5556975825613386  5.1603263753226596  5.1460323946489517
  4.9949916128808880  8.4010345772064952  1.7075097375864881
  4.5425031840194352  0.6399427124416430  5.1693669305452694
  3.3777256896658154  3.8805059150093579  1.7309378599381482
  6.1596975825613383  5.1603263753226596  5.1460323946489517
  3.7204316128808879  8.4010345772064952  8.5843897375864877
  3.2679431840194351  0.6399427124416430 12.0462469305452711
  2.1031656896658153  3.8805059150093579  8.6078178599381499
  4.8851375825613381  5.1603263753226596 12.0229123946489516
  8.5989916128808872  8.4010345772064952  1.7075097375864881
  8.1465031840194353  0.6399427124416430  5.1693669305452694
  6.9817256896658151  3.8805059150093579  1.7309378599381482
  9.7636975825613384  5.1603263753226596  5.1460323946489517
  7.3244316128808888  8.4010345772064952  8.5843897375864877
  6.8719431840194360  0.6399427124416430 12.0462469305452711
  5.7071656896658149  3.8805059150093579  8.6078178599381499
  8.4891375825613391  5.1603263753226596 12.0229123946489516
 12.2029916128808882  8.4010345772064952  1.7075097375864881
 11.7505031840194345  0.6399427124416430  5.1693669305452694
 10.5857256896658161  3.8805059150093579  1.7309378599381482
 13.3676975825613393  5.1603263753226596  5.1460323946489517
 10.9284316128808854  8.4010345772064952  8.5843897375864877
 10.4759431840194353  0.6399427124416430 12.0462469305452711
  9.3111656896658150  3.8805059150093579  8.6078178599381499
 12.0931375825613383  5.1603263753226596 12.0229123946489516
 14.5324316128808864  8.4010345772064952  8.5843897375864877
 14.0799431840194362  0.6399427124416430 12.0462469305452711
 12.9151656896658160  3.8805059150093579  8.6078178599381499
  1.2811375825613396  5.1603263753226596 12.0229123946489516
