 C  H                                   
   1.0000000000000000     
    22.0000000000000000    0.0000000000000000    0.0000000000000000
     0.0000000000000000   22.0000000000000000    0.0000000000000000
     0.0000000000000000    0.0000000000000000   22.0000000000000000
   C    H 
     6     6
Direct
  0.2755103275264190  0.1665809417204116  0.3004368237319781
  0.2376514907067531  0.2879645885919473  0.3023019640911073
  0.3021095031853847  0.2075567174572015  0.3411329527328775
  0.2110523150419255  0.2469888128633073  0.2616058350870460
  0.2831800459463238  0.2682486494088749  0.3420654837709236
  0.2299817722924118  0.1862968809082162  0.2606733040440119
  0.2901636808924835  0.1195993142567175  0.2997148753970222
  0.2229981372492205  0.3349462160223098  0.3030239125516090
  0.3373530897092607  0.1922944906510722  0.3719138217272047
  0.1758087284057552  0.2622510396644699  0.2308249662108466
  0.3037702936141571  0.2999679843212704  0.3735683962602607
  0.2093915245181037  0.1545775459559664  0.2291703916642263

  0.00000000E+00  0.00000000E+00  0.00000000E+00
  0.00000000E+00  0.00000000E+00  0.00000000E+00
  0.00000000E+00  0.00000000E+00  0.00000000E+00
  0.00000000E+00  0.00000000E+00  0.00000000E+00
  0.00000000E+00  0.00000000E+00  0.00000000E+00
  0.00000000E+00  0.00000000E+00  0.00000000E+00
  0.00000000E+00  0.00000000E+00  0.00000000E+00
  0.00000000E+00  0.00000000E+00  0.00000000E+00
  0.00000000E+00  0.00000000E+00  0.00000000E+00
  0.00000000E+00  0.00000000E+00  0.00000000E+00
  0.00000000E+00  0.00000000E+00  0.00000000E+00
  0.00000000E+00  0.00000000E+00  0.00000000E+00
