 H  C  N                                
   1.0000000000000000     
    25.0000000000000000    0.0000000000000000    0.0000000000000000
     0.0000000000000000   25.0000000000000000    0.0000000000000000
     0.0000000000000000    0.0000000000000000   25.0000000000000000
   H    C    N 
    12     6     4
Direct
  0.4030949681291318  0.2920241195123978  0.2715449309489770
  0.3450476130626754  0.2715012374981924  0.2359986200183997
  0.2659215102192860  0.2435256207503826  0.2844539434869517
  0.2659217977978798  0.2435255769957863  0.3555468102807779
  0.4030954338736663  0.2920241301735302  0.3684547090822576
  0.3450482835730710  0.2715011864577761  0.4040014147625755
  0.2659211450223680  0.3274520049456342  0.2359989469192527
  0.2659212796410131  0.3890202282010975  0.2715455340372088
  0.4030951286085553  0.3759503752976272  0.3199998943694951
  0.3450476851954249  0.4169957128806843  0.3200001409923914
  0.2659218828238892  0.3274519472197568  0.4040017454440985
  0.2659217528168156  0.3890202159189329  0.3684552967611125
  0.3594222757471712  0.2921211322351525  0.2717133439063630
  0.2805708507505713  0.2642427123873219  0.3200003353095227
  0.3594227192740860  0.2921211440188856  0.3682867060599193
  0.2805705390399140  0.3478776583669259  0.2717136712760535
  0.3594223677467312  0.3757560387824057  0.3200000720705987
  0.2805709930842255  0.3478776612937793  0.3682870232464950
  0.3402659626036311  0.2626688431052742  0.3200001396369316
  0.3402655724815702  0.3486643843566384  0.2703505837095221
  0.2591882040674207  0.3199992862186818  0.3200004876644940
  0.3402660344408588  0.3486643833826051  0.3696496500137414

  0.00000000E+00  0.00000000E+00  0.00000000E+00
  0.00000000E+00  0.00000000E+00  0.00000000E+00
  0.00000000E+00  0.00000000E+00  0.00000000E+00
  0.00000000E+00  0.00000000E+00  0.00000000E+00
  0.00000000E+00  0.00000000E+00  0.00000000E+00
  0.00000000E+00  0.00000000E+00  0.00000000E+00
  0.00000000E+00  0.00000000E+00  0.00000000E+00
  0.00000000E+00  0.00000000E+00  0.00000000E+00
  0.00000000E+00  0.00000000E+00  0.00000000E+00
  0.00000000E+00  0.00000000E+00  0.00000000E+00
  0.00000000E+00  0.00000000E+00  0.00000000E+00
  0.00000000E+00  0.00000000E+00  0.00000000E+00
  0.00000000E+00  0.00000000E+00  0.00000000E+00
  0.00000000E+00  0.00000000E+00  0.00000000E+00
  0.00000000E+00  0.00000000E+00  0.00000000E+00
  0.00000000E+00  0.00000000E+00  0.00000000E+00
  0.00000000E+00  0.00000000E+00  0.00000000E+00
  0.00000000E+00  0.00000000E+00  0.00000000E+00
  0.00000000E+00  0.00000000E+00  0.00000000E+00
  0.00000000E+00  0.00000000E+00  0.00000000E+00
  0.00000000E+00  0.00000000E+00  0.00000000E+00
  0.00000000E+00  0.00000000E+00  0.00000000E+00
