 C  O  H                                
   1.0000000000000000     
    11.4359923123306846    0.0000001929686733    0.0871899759753594
     0.0000002274962562    6.5933876970928758   -0.0000002725953905
    -1.0841649667718658   -0.0000003694566473   11.2691518588567039
   C    O    H 
    36    16    32
Direct
  0.1555830925451968  0.5548879979624635  0.0676976918840927
  0.8444168915685573  0.0548876236182897  0.4323022973893610
  0.8444168221790032  0.4451123207331197  0.9323018305696362
  0.1555832706689114  0.9451117077528802  0.5676983930064494
  0.2491870740755135  0.4768308898497549  0.0079681937496780
  0.7508130498339483  0.9768302499355480  0.4920319319892767
  0.7508129515520376  0.5231695325054924  0.9920314411690779
  0.2491872973157883  0.0231685842681122  0.5079689445043114
  0.3014708507883142  0.2918320794527841  0.0398977113816024
  0.6985292289708437  0.7918314745660007  0.4601022632375658
  0.6985290763911695  0.7081683000498068  0.9601017753525634
  0.3014711428685523  0.2081673305370702  0.5398984701893975
  0.2625748425287595  0.1808164347981639  0.1340532445680624
  0.7374249749362153  0.6808162026457992  0.3659464481656999
  0.7374247861583261  0.8191836957441242  0.8659459839898507
  0.2625750979701606  0.3191832658111171  0.6340539331636946
  0.1707368944832164  0.2550632702136875  0.1955199908463551
  0.8292627383675407  0.7550633270556235  0.3044796344429599
  0.8292626085990182  0.7449366534090958  0.8044792043319334
  0.1707370413015395  0.2449365919587321  0.6955205828943073
  0.1178285199837939  0.4388870518922613  0.1620463647329876
  0.8821711339842424  0.9388869241166813  0.3379533393303806
  0.8821709857571554  0.5611131540996264  0.8379528969209059
  0.1178286883625922  0.0611129228938813  0.6620469922892572
  0.0919137761217781  0.7487837845004529  0.0390348444840168
  0.9080861377711572  0.2487835403214196  0.4609649288486116
  0.9080861764240665  0.2512164203194625  0.9609643646606721
  0.0919137274761011  0.7512160046094898  0.5390356445646000
  0.3723262420503966  0.7344579792339786  0.9360046567906125
  0.6276738340872005  0.2344571839730406  0.5639955126649164
  0.6276735991317905  0.2655428543331059  0.0639953482424157
  0.3723265578713010  0.7655418854611824  0.4360050134466481
  0.4037315015652401  0.8362233385837490  0.8240838488651649
  0.5962685088128975  0.3362228815647876  0.6759157964679379
  0.5962683911725337  0.1637773227030982  0.1759156038275702
  0.4037316869986112  0.6637765378721728  0.3240841042963475
  0.1258962826596870  0.8531055553323766  0.9457853754525878
  0.8741038078605881  0.3531052023350887  0.5542145246574461
  0.8741038540778350  0.1468947030675055  0.0542139785377940
  0.1258962879325319  0.6468941728293497  0.4457861030831477
  0.0119130339962076  0.8089846576042572  0.0973712350138766
  0.9880865389461335  0.3089846888630212  0.4026282251888191
  0.9880865150701038  0.1910153172493841  0.9026276666979678
  0.0119130923258821  0.6910154123639136  0.5973719008001832
  0.2918955206156999  0.5783171773809326  0.9101968611078556
  0.7081046560634531  0.0783162009053991  0.5898033076993813
  0.7081046516986504  0.4216835857225655  0.0898028692332177
  0.2918955818548404  0.9216822948127058  0.4101974959841118
  0.4099262575763533  0.7760025968859257  0.0368143978420730
  0.5900741019666061  0.2760010673271041  0.4631856187864657
  0.5900735618118400  0.2239989736769313  0.9631854901208070
  0.4099269738969785  0.7239973192625501  0.5368147205696299
  0.3725380940605512  0.2373458324259120  0.9911894491063947
  0.6274619538417060  0.7373452710415865  0.5088105002479264
  0.6274617259138405  0.7626544991508367  0.0088099813103265
  0.3725384352994122  0.2626535638507432  0.4911902305832419
  0.3036831547256234  0.0371907403390900  0.1585676868266558
  0.6963165521764063  0.5371908094617890  0.3414318852850738
  0.6963163065353474  0.9628090057288191  0.8414314171477942
  0.3036833785423018  0.4628089622334540  0.6585683191184249
  0.1401821502734418  0.1704791203837623  0.2686434804953901
  0.8598173826209556  0.6704793768551375  0.2313559763664210
  0.8598172897290913  0.8295207315196547  0.7313556436279850
  0.1401821747219686  0.3295209650124139  0.7686439259229004
  0.0459930096890181  0.4957518694930472  0.2084735009735864
  0.9540063924554578  0.9957521852947702  0.2915260207382838
  0.9540062645572648  0.5042479228595440  0.7915255617294479
  0.0459930754947491  0.0042482235932134  0.7084740260723544
  0.4591699263277562  0.9669809408028655  0.8470858507173485
  0.5408302121970366  0.4669805814349453  0.6529142115846958
  0.5408300307714486  0.0330197043749338  0.1529142615374839
  0.4591702232298761  0.5330191260884156  0.3470858786279441
  0.3239813879189057  0.8823044068412186  0.7709189686573952
  0.6760188708764380  0.3823036171011847  0.7290810649439543
  0.6760188642063816  0.1176966131636547  0.2290808594394637
  0.3239815369403431  0.6176955096192532  0.2709193480310549
  0.4501170252266574  0.7301959821075400  0.7705789442211013
  0.5498830158536447  0.2301953546676867  0.7294211637402110
  0.5498830324245394  0.2698050593685277  0.2294211105292766
  0.4501170390428847  0.7698041153765226  0.2705791652386184
  0.0757184262301023  0.9772765142439351  0.9337445767931847
  0.9242814365831703  0.4772765175023465  0.5662551086636711
  0.9242815155879438  0.0227233617108262  0.0662544527457191
  0.0757184148481465  0.5227232573670764  0.4337452683808141

  0.00000000E+00  0.00000000E+00  0.00000000E+00
  0.00000000E+00  0.00000000E+00  0.00000000E+00
  0.00000000E+00  0.00000000E+00  0.00000000E+00
  0.00000000E+00  0.00000000E+00  0.00000000E+00
  0.00000000E+00  0.00000000E+00  0.00000000E+00
  0.00000000E+00  0.00000000E+00  0.00000000E+00
  0.00000000E+00  0.00000000E+00  0.00000000E+00
  0.00000000E+00  0.00000000E+00  0.00000000E+00
  0.00000000E+00  0.00000000E+00  0.00000000E+00
  0.00000000E+00  0.00000000E+00  0.00000000E+00
  0.00000000E+00  0.00000000E+00  0.00000000E+00
  0.00000000E+00  0.00000000E+00  0.00000000E+00
  0.00000000E+00  0.00000000E+00  0.00000000E+00
  0.00000000E+00  0.00000000E+00  0.00000000E+00
  0.00000000E+00  0.00000000E+00  0.00000000E+00
  0.00000000E+00  0.00000000E+00  0.00000000E+00
  0.00000000E+00  0.00000000E+00  0.00000000E+00
  0.00000000E+00  0.00000000E+00  0.00000000E+00
  0.00000000E+00  0.00000000E+00  0.00000000E+00
  0.00000000E+00  0.00000000E+00  0.00000000E+00
  0.00000000E+00  0.00000000E+00  0.00000000E+00
  0.00000000E+00  0.00000000E+00  0.00000000E+00
  0.00000000E+00  0.00000000E+00  0.00000000E+00
  0.00000000E+00  0.00000000E+00  0.00000000E+00
  0.00000000E+00  0.00000000E+00  0.00000000E+00
  0.00000000E+00  0.00000000E+00  0.00000000E+00
  0.00000000E+00  0.00000000E+00  0.00000000E+00
  0.00000000E+00  0.00000000E+00  0.00000000E+00
  0.00000000E+00  0.00000000E+00  0.00000000E+00
  0.00000000E+00  0.00000000E+00  0.00000000E+00
  0.00000000E+00  0.00000000E+00  0.00000000E+00
  0.00000000E+00  0.00000000E+00  0.00000000E+00
  0.00000000E+00  0.00000000E+00  0.00000000E+00
  0.00000000E+00  0.00000000E+00  0.00000000E+00
  0.00000000E+00  0.00000000E+00  0.00000000E+00
  0.00000000E+00  0.00000000E+00  0.00000000E+00
  0.00000000E+00  0.00000000E+00  0.00000000E+00
  0.00000000E+00  0.00000000E+00  0.00000000E+00
  0.00000000E+00  0.00000000E+00  0.00000000E+00
  0.00000000E+00  0.00000000E+00  0.00000000E+00
  0.00000000E+00  0.00000000E+00  0.00000000E+00
  0.00000000E+00  0.00000000E+00  0.00000000E+00
  0.00000000E+00  0.00000000E+00  0.00000000E+00
  0.00000000E+00  0.00000000E+00  0.00000000E+00
  0.00000000E+00  0.00000000E+00  0.00000000E+00
  0.00000000E+00  0.00000000E+00  0.00000000E+00
  0.00000000E+00  0.00000000E+00  0.00000000E+00
  0.00000000E+00  0.00000000E+00  0.00000000E+00
  0.00000000E+00  0.00000000E+00  0.00000000E+00
  0.00000000E+00  0.00000000E+00  0.00000000E+00
  0.00000000E+00  0.00000000E+00  0.00000000E+00
  0.00000000E+00  0.00000000E+00  0.00000000E+00
  0.00000000E+00  0.00000000E+00  0.00000000E+00
  0.00000000E+00  0.00000000E+00  0.00000000E+00
  0.00000000E+00  0.00000000E+00  0.00000000E+00
  0.00000000E+00  0.00000000E+00  0.00000000E+00
  0.00000000E+00  0.00000000E+00  0.00000000E+00
  0.00000000E+00  0.00000000E+00  0.00000000E+00
  0.00000000E+00  0.00000000E+00  0.00000000E+00
  0.00000000E+00  0.00000000E+00  0.00000000E+00
  0.00000000E+00  0.00000000E+00  0.00000000E+00
  0.00000000E+00  0.00000000E+00  0.00000000E+00
  0.00000000E+00  0.00000000E+00  0.00000000E+00
  0.00000000E+00  0.00000000E+00  0.00000000E+00
  0.00000000E+00  0.00000000E+00  0.00000000E+00
  0.00000000E+00  0.00000000E+00  0.00000000E+00
  0.00000000E+00  0.00000000E+00  0.00000000E+00
  0.00000000E+00  0.00000000E+00  0.00000000E+00
  0.00000000E+00  0.00000000E+00  0.00000000E+00
  0.00000000E+00  0.00000000E+00  0.00000000E+00
  0.00000000E+00  0.00000000E+00  0.00000000E+00
  0.00000000E+00  0.00000000E+00  0.00000000E+00
  0.00000000E+00  0.00000000E+00  0.00000000E+00
  0.00000000E+00  0.00000000E+00  0.00000000E+00
  0.00000000E+00  0.00000000E+00  0.00000000E+00
  0.00000000E+00  0.00000000E+00  0.00000000E+00
  0.00000000E+00  0.00000000E+00  0.00000000E+00
  0.00000000E+00  0.00000000E+00  0.00000000E+00
  0.00000000E+00  0.00000000E+00  0.00000000E+00
  0.00000000E+00  0.00000000E+00  0.00000000E+00
  0.00000000E+00  0.00000000E+00  0.00000000E+00
  0.00000000E+00  0.00000000E+00  0.00000000E+00
  0.00000000E+00  0.00000000E+00  0.00000000E+00
  0.00000000E+00  0.00000000E+00  0.00000000E+00
