 C  H  N  O 
        1.0000000000
  26.291831374712956   0.000000000000000   0.000000000000000
   0.000000000000000  19.356088041245581   0.000000000000000
   0.000000000000000   0.000000000000000   7.700381389219661
  128  160   96   32
 Direct
   0.492080161817093   0.078973038903900   0.165573626474640
   0.992080161817093   0.078973038903900   0.165573626474640
   0.492080161817093   0.578973038903900   0.165573626474640
   0.992080161817093   0.578973038903900   0.165573626474640
   0.492080161817093   0.078973038903900   0.665573626474640
   0.992080161817093   0.078973038903900   0.665573626474640
   0.492080161817093   0.578973038903900   0.665573626474640
   0.992080161817093   0.578973038903900   0.665573626474640
   0.257920418556142   0.421025586894623   0.415573626474640
   0.757920418556142   0.421025586894623   0.415573626474640
   0.257920418556142   0.921025586894623   0.415573626474640
   0.757920418556142   0.921025586894623   0.415573626474640
   0.257920418556142   0.421025586894623   0.915573626474640
   0.757920418556142   0.421025586894623   0.915573626474640
   0.257920418556142   0.921025586894623   0.915573626474640
   0.757920418556142   0.921025586894623   0.915573626474640
   0.007920418556143   0.328973038903899   0.084426664198536
   0.507920418556143   0.328973038903899   0.084426664198536
   0.007920418556143   0.828973038903899   0.084426664198536
   0.507920418556143   0.828973038903899   0.084426664198536
   0.007920418556143   0.328973038903899   0.584426664198537
   0.507920418556143   0.328973038903899   0.584426664198537
   0.007920418556143   0.828973038903899   0.584426664198537
   0.507920418556143   0.828973038903899   0.584426664198537
   0.242080161817095   0.171025586894623   0.334426664198534
   0.742080161817095   0.171025586894623   0.334426664198534
   0.242080161817095   0.671025586894623   0.334426664198534
   0.742080161817095   0.671025586894623   0.334426664198534
   0.242080161817095   0.171025586894623   0.834426664198534
   0.742080161817095   0.171025586894623   0.834426664198534
   0.242080161817095   0.671025586894623   0.834426664198534
   0.742080161817095   0.671025586894623   0.834426664198534
   0.065341002704022   0.133220847086618   0.276275138448253
   0.565341002704022   0.133220847086618   0.276275138448253
   0.065341002704022   0.633220847086618   0.276275138448253
   0.565341002704022   0.633220847086618   0.276275138448253
   0.065341002704022   0.133220847086618   0.776275138448253
   0.565341002704022   0.133220847086618   0.776275138448253
   0.065341002704022   0.633220847086618   0.776275138448253
   0.565341002704022   0.633220847086618   0.776275138448253
   0.184659577669215   0.366777778711904   0.026275138448256
   0.684659577669215   0.366777778711904   0.026275138448256
   0.184659577669215   0.866777778711904   0.026275138448256
   0.684659577669215   0.866777778711904   0.026275138448256
   0.184659577669215   0.366777778711904   0.526275138448256
   0.684659577669215   0.366777778711904   0.526275138448256
   0.184659577669215   0.866777778711904   0.526275138448256
   0.684659577669215   0.866777778711904   0.526275138448256
   0.434659577669214   0.383220847086619   0.473725152224921
   0.934659577669214   0.383220847086619   0.473725152224921
   0.434659577669214   0.883220847086619   0.473725152224921
   0.934659577669214   0.883220847086619   0.473725152224921
   0.434659577669214   0.383220847086619   0.973725152224921
   0.934659577669214   0.383220847086619   0.973725152224921
   0.434659577669214   0.883220847086619   0.973725152224921
   0.934659577669214   0.883220847086619   0.973725152224921
   0.315341002704020   0.116777778711904   0.223725152224921
   0.815341002704020   0.116777778711904   0.223725152224921
   0.315341002704020   0.616777778711904   0.223725152224921
   0.815341002704020   0.616777778711904   0.223725152224921
   0.315341002704020   0.116777778711904   0.723725152224921
   0.815341002704020   0.116777778711904   0.723725152224921
   0.315341002704020   0.616777778711904   0.723725152224921
   0.815341002704020   0.616777778711904   0.723725152224921
   0.085993016931582   0.068664939735694   0.334793423937446
   0.585993016931582   0.068664939735694   0.334793423937446
   0.085993016931582   0.568664939735694   0.334793423937446
   0.585993016931582   0.568664939735694   0.334793423937446
   0.085993016931582   0.068664939735694   0.834793423937446
   0.585993016931582   0.068664939735694   0.834793423937446
   0.085993016931582   0.568664939735694   0.834793423937446
   0.585993016931582   0.568664939735694   0.834793423937446
   0.164007563441655   0.431333686062828   0.084793423937448
   0.664007563441655   0.431333686062828   0.084793423937448
   0.164007563441655   0.931333686062828   0.084793423937448
   0.664007563441655   0.931333686062828   0.084793423937448
   0.164007563441655   0.431333686062828   0.584793423937448
   0.664007563441655   0.431333686062828   0.584793423937448
   0.164007563441655   0.931333686062828   0.584793423937448
   0.664007563441655   0.931333686062828   0.584793423937448
   0.414007563441654   0.318664939735694   0.415206866735728
   0.914007563441654   0.318664939735694   0.415206866735728
   0.414007563441654   0.818664939735694   0.415206866735728
   0.914007563441654   0.818664939735694   0.415206866735728
   0.414007563441654   0.318664939735694   0.915206866735728
   0.914007563441654   0.318664939735694   0.915206866735728
   0.414007563441654   0.818664939735694   0.915206866735728
   0.914007563441654   0.818664939735694   0.915206866735728
   0.335993016931580   0.181333686062828   0.165206866735729
   0.835993016931580   0.181333686062828   0.165206866735729
   0.335993016931580   0.681333686062828   0.165206866735729
   0.835993016931580   0.681333686062828   0.165206866735729
   0.335993016931580   0.181333686062828   0.665206866735729
   0.835993016931580   0.181333686062828   0.665206866735729
   0.335993016931580   0.681333686062828   0.665206866735729
   0.835993016931580   0.681333686062828   0.665206866735729
   0.057658681027040   0.010926185374195   0.305500256869083
   0.557658681027040   0.010926185374195   0.305500256869083
   0.057658681027040   0.510926185374195   0.305500256869083
   0.557658681027040   0.510926185374195   0.305500256869083
   0.057658681027040   0.010926185374195   0.805500256869083
   0.557658681027040   0.010926185374195   0.805500256869083
   0.057658681027040   0.510926185374195   0.805500256869083
   0.557658681027040   0.510926185374195   0.805500256869083
   0.192341899346198   0.489072440424327   0.055500256869085
   0.692341899346198   0.489072440424327   0.055500256869085
   0.192341899346198   0.989072440424327   0.055500256869085
   0.692341899346198   0.989072440424327   0.055500256869085
   0.192341899346198   0.489072440424327   0.555500256869085
   0.692341899346198   0.489072440424327   0.555500256869085
   0.192341899346198   0.989072440424327   0.555500256869085
   0.692341899346198   0.989072440424327   0.555500256869085
   0.442341899346196   0.260926185374196   0.444500033804091
   0.942341899346196   0.260926185374196   0.444500033804091
   0.442341899346196   0.760926185374196   0.444500033804091
   0.942341899346196   0.760926185374196   0.444500033804091
   0.442341899346196   0.260926185374196   0.944500033804091
   0.942341899346196   0.260926185374196   0.944500033804091
   0.442341899346196   0.760926185374196   0.944500033804091
   0.942341899346196   0.760926185374196   0.944500033804091
   0.307658681027038   0.239072440424327   0.194500033804092
   0.807658681027038   0.239072440424327   0.194500033804092
   0.307658681027038   0.739072440424327   0.194500033804092
   0.807658681027038   0.739072440424327   0.194500033804092
   0.307658681027038   0.239072440424327   0.694500033804092
   0.807658681027038   0.239072440424327   0.694500033804092
   0.307658681027038   0.739072440424327   0.694500033804092
   0.807658681027038   0.739072440424327   0.694500033804092
   0.495130224358982   0.470408644256315   0.179623771523394
   0.995130224358982   0.470408644256315   0.179623771523394
   0.495130224358982   0.970408644256315   0.179623771523394
   0.995130224358982   0.970408644256315   0.179623771523394
   0.495130224358982   0.470408644256315   0.679623771523394
   0.995130224358982   0.470408644256315   0.679623771523394
   0.495130224358982   0.970408644256315   0.679623771523394
   0.995130224358982   0.970408644256315   0.679623771523394
   0.254870356014254   0.029589981542207   0.429623771523394
   0.754870356014254   0.029589981542207   0.429623771523394
   0.254870356014254   0.529589981542207   0.429623771523394
   0.754870356014254   0.529589981542207   0.429623771523394
   0.254870356014254   0.029589981542207   0.929623771523394
   0.754870356014254   0.029589981542207   0.929623771523394
   0.254870356014254   0.529589981542207   0.929623771523394
   0.754870356014254   0.529589981542207   0.929623771523394
   0.004870356014256   0.220408644256315   0.070376519149783
   0.504870356014256   0.220408644256315   0.070376519149783
   0.004870356014256   0.720408644256315   0.070376519149783
   0.504870356014256   0.720408644256315   0.070376519149783
   0.004870356014256   0.220408644256315   0.570376519149782
   0.504870356014256   0.220408644256315   0.570376519149782
   0.004870356014256   0.720408644256315   0.570376519149782
   0.504870356014256   0.720408644256315   0.570376519149782
   0.245130224358982   0.279589981542208   0.320376519149780
   0.745130224358982   0.279589981542208   0.320376519149780
   0.245130224358982   0.779589981542208   0.320376519149780
   0.745130224358982   0.779589981542208   0.320376519149780
   0.245130224358982   0.279589981542208   0.820376519149780
   0.745130224358982   0.279589981542208   0.820376519149780
   0.245130224358982   0.779589981542208   0.820376519149780
   0.745130224358982   0.779589981542208   0.820376519149780
   0.077253780618832   0.238153133646862   0.261341344355616
   0.577253780618832   0.238153133646862   0.261341344355616
   0.077253780618832   0.738153133646862   0.261341344355616
   0.577253780618832   0.738153133646862   0.261341344355616
   0.077253780618832   0.238153133646862   0.761341344355616
   0.577253780618832   0.238153133646862   0.761341344355616
   0.077253780618832   0.738153133646862   0.761341344355616
   0.577253780618832   0.738153133646862   0.761341344355616
   0.172746799754405   0.261845492151661   0.011341344355618
   0.672746799754405   0.261845492151661   0.011341344355618
   0.172746799754405   0.761845492151661   0.011341344355618
   0.672746799754405   0.761845492151661   0.011341344355618
   0.172746799754405   0.261845492151661   0.511341344355618
   0.672746799754405   0.261845492151661   0.511341344355618
   0.172746799754405   0.761845492151661   0.511341344355618
   0.672746799754405   0.761845492151661   0.511341344355618
   0.422746799754403   0.488153133646862   0.488658946317558
   0.922746799754403   0.488153133646862   0.488658946317558
   0.422746799754403   0.988153133646862   0.488658946317558
   0.922746799754403   0.988153133646862   0.488658946317558
   0.422746799754403   0.488153133646862   0.988658946317558
   0.922746799754403   0.488153133646862   0.988658946317558
   0.422746799754403   0.988153133646862   0.988658946317558
   0.922746799754403   0.988153133646862   0.988658946317558
   0.327253780618830   0.011845492151660   0.238658946317559
   0.827253780618830   0.011845492151660   0.238658946317559
   0.327253780618830   0.511845492151660   0.238658946317559
   0.827253780618830   0.511845492151660   0.238658946317559
   0.327253780618830   0.011845492151660   0.738658946317559
   0.827253780618830   0.011845492151660   0.738658946317559
   0.327253780618830   0.511845492151660   0.738658946317559
   0.827253780618830   0.511845492151660   0.738658946317559
   0.128640146955832   0.189233583561645   0.341732001783282
   0.628640146955832   0.189233583561645   0.341732001783282
   0.128640146955832   0.689233583561645   0.341732001783282
   0.628640146955832   0.689233583561645   0.341732001783282
   0.128640146955832   0.189233583561645   0.841732001783281
   0.628640146955832   0.189233583561645   0.841732001783281
   0.128640146955832   0.689233583561645   0.841732001783281
   0.628640146955832   0.689233583561645   0.841732001783281
   0.121360433417406   0.310765042236878   0.091732001783283
   0.621360433417406   0.310765042236878   0.091732001783283
   0.121360433417406   0.810765042236878   0.091732001783283
   0.621360433417406   0.810765042236878   0.091732001783283
   0.121360433417406   0.310765042236878   0.591732001783283
   0.621360433417406   0.310765042236878   0.591732001783283
   0.121360433417406   0.810765042236878   0.591732001783283
   0.621360433417406   0.810765042236878   0.591732001783283
   0.371360433417404   0.439233583561644   0.408268288889893
   0.871360433417404   0.439233583561644   0.408268288889893
   0.371360433417404   0.939233583561644   0.408268288889893
   0.871360433417404   0.939233583561644   0.408268288889893
   0.371360433417404   0.439233583561644   0.908268288889893
   0.871360433417404   0.439233583561644   0.908268288889893
   0.371360433417404   0.939233583561644   0.908268288889893
   0.871360433417404   0.939233583561644   0.908268288889893
   0.378640146955830   0.060765042236878   0.158268288889893
   0.878640146955830   0.060765042236878   0.158268288889893
   0.378640146955830   0.560765042236878   0.158268288889893
   0.878640146955830   0.560765042236878   0.158268288889893
   0.378640146955830   0.060765042236878   0.658268288889893
   0.878640146955830   0.060765042236878   0.658268288889893
   0.378640146955830   0.560765042236878   0.658268288889893
   0.878640146955830   0.560765042236878   0.658268288889893
   0.122257612710027   0.067010637853453   0.400102329865035
   0.622257612710027   0.067010637853453   0.400102329865035
   0.122257612710027   0.567010637853453   0.400102329865035
   0.622257612710027   0.567010637853453   0.400102329865035
   0.122257612710027   0.067010637853453   0.900102329865035
   0.622257612710027   0.067010637853453   0.900102329865035
   0.122257612710027   0.567010637853453   0.900102329865035
   0.622257612710027   0.567010637853453   0.900102329865035
   0.127742967663211   0.432987987945070   0.150102329865034
   0.627742967663211   0.432987987945070   0.150102329865034
   0.127742967663211   0.932987987945070   0.150102329865034
   0.627742967663211   0.932987987945070   0.150102329865034
   0.127742967663211   0.432987987945070   0.650102329865034
   0.627742967663211   0.432987987945070   0.650102329865034
   0.127742967663211   0.932987987945070   0.650102329865034
   0.627742967663211   0.932987987945070   0.650102329865034
   0.377742967663208   0.317010637853453   0.349897960808140
   0.877742967663208   0.317010637853453   0.349897960808140
   0.377742967663208   0.817010637853453   0.349897960808140
   0.877742967663208   0.817010637853453   0.349897960808140
   0.377742967663208   0.317010637853453   0.849897960808140
   0.877742967663208   0.317010637853453   0.849897960808140
   0.377742967663208   0.817010637853453   0.849897960808140
   0.877742967663208   0.817010637853453   0.849897960808140
   0.372257612710025   0.182987987945070   0.099897960808142
   0.872257612710025   0.182987987945070   0.099897960808142
   0.372257612710025   0.682987987945070   0.099897960808142
   0.872257612710025   0.682987987945070   0.099897960808142
   0.372257612710025   0.182987987945070   0.599897960808142
   0.872257612710025   0.182987987945070   0.599897960808142
   0.372257612710025   0.682987987945070   0.599897960808142
   0.872257612710025   0.682987987945070   0.599897960808142
   0.068868925694784   0.459286705029921   0.344021534426363
   0.568868925694784   0.459286705029921   0.344021534426363
   0.068868925694784   0.959286705029921   0.344021534426363
   0.568868925694784   0.959286705029921   0.344021534426363
   0.068868925694784   0.459286705029921   0.844021534426363
   0.568868925694784   0.459286705029921   0.844021534426363
   0.068868925694784   0.959286705029921   0.844021534426363
   0.568868925694784   0.959286705029921   0.844021534426363
   0.181131654678454   0.040711920768601   0.094021534426365
   0.681131654678454   0.040711920768601   0.094021534426365
   0.181131654678454   0.540711920768601   0.094021534426365
   0.681131654678454   0.540711920768601   0.094021534426365
   0.181131654678454   0.040711920768601   0.594021534426365
   0.681131654678454   0.040711920768601   0.594021534426365
   0.181131654678454   0.540711920768601   0.594021534426365
   0.681131654678454   0.540711920768601   0.594021534426365
   0.431131654678452   0.209286705029921   0.405978756246812
   0.931131654678452   0.209286705029921   0.405978756246812
   0.431131654678452   0.709286705029921   0.405978756246812
   0.931131654678452   0.709286705029921   0.405978756246812
   0.431131654678452   0.209286705029921   0.905978756246812
   0.931131654678452   0.209286705029921   0.905978756246812
   0.431131654678452   0.709286705029921   0.905978756246812
   0.931131654678452   0.709286705029921   0.905978756246812
   0.318868925694782   0.290711920768602   0.155978756246812
   0.818868925694782   0.290711920768602   0.155978756246812
   0.318868925694782   0.790711920768602   0.155978756246812
   0.818868925694782   0.790711920768602   0.155978756246812
   0.318868925694782   0.290711920768602   0.655978756246812
   0.818868925694782   0.290711920768602   0.655978756246812
   0.318868925694782   0.790711920768602   0.655978756246812
   0.818868925694782   0.790711920768602   0.655978756246812
   0.011908474418432   0.015572012591188   0.222891845830531
   0.511908474418432   0.015572012591188   0.222891845830531
   0.011908474418432   0.515572012591188   0.222891845830531
   0.511908474418432   0.515572012591188   0.222891845830531
   0.011908474418432   0.015572012591188   0.722891845830531
   0.511908474418432   0.015572012591188   0.722891845830531
   0.011908474418432   0.515572012591188   0.722891845830531
   0.511908474418432   0.515572012591188   0.722891845830531
   0.238092105954805   0.484426613207334   0.472891845830530
   0.738092105954805   0.484426613207334   0.472891845830530
   0.238092105954805   0.984426613207334   0.472891845830530
   0.738092105954805   0.984426613207334   0.472891845830530
   0.238092105954805   0.484426613207334   0.972891845830530
   0.738092105954805   0.484426613207334   0.972891845830530
   0.238092105954805   0.984426613207334   0.972891845830530
   0.738092105954805   0.984426613207334   0.972891845830530
   0.488092105954805   0.265572012591188   0.027108444842646
   0.988092105954804   0.265572012591188   0.027108444842646
   0.488092105954805   0.765572012591188   0.027108444842646
   0.988092105954804   0.765572012591188   0.027108444842646
   0.488092105954805   0.265572012591188   0.527108444842646
   0.988092105954804   0.265572012591188   0.527108444842646
   0.488092105954805   0.765572012591188   0.527108444842646
   0.988092105954804   0.765572012591188   0.527108444842646
   0.261908474418431   0.234426613207335   0.277108444842643
   0.761908474418431   0.234426613207335   0.277108444842643
   0.261908474418431   0.734426613207335   0.277108444842643
   0.761908474418431   0.734426613207335   0.277108444842643
   0.261908474418431   0.234426613207335   0.777108444842643
   0.761908474418431   0.234426613207335   0.777108444842643
   0.261908474418431   0.734426613207335   0.777108444842643
   0.761908474418431   0.734426613207335   0.777108444842643
   0.019734557972029   0.137431941528603   0.196251432399985
   0.519734557972029   0.137431941528603   0.196251432399985
   0.019734557972029   0.637431941528603   0.196251432399985
   0.519734557972029   0.637431941528603   0.196251432399985
   0.019734557972029   0.137431941528603   0.696251432399985
   0.519734557972029   0.137431941528603   0.696251432399985
   0.019734557972029   0.637431941528603   0.696251432399985
   0.519734557972029   0.637431941528603   0.696251432399985
   0.230266022401208   0.362566684269920   0.446251432399984
   0.730266022401208   0.362566684269920   0.446251432399984
   0.230266022401208   0.862566684269920   0.446251432399984
   0.730266022401208   0.862566684269920   0.446251432399984
   0.230266022401208   0.362566684269920   0.946251432399984
   0.730266022401208   0.362566684269920   0.946251432399984
   0.230266022401208   0.862566684269920   0.946251432399984
   0.730266022401208   0.862566684269920   0.946251432399984
   0.480266022401207   0.387431941528603   0.053748858273192
   0.980266022401207   0.387431941528603   0.053748858273192
   0.480266022401207   0.887431941528603   0.053748858273192
   0.980266022401207   0.887431941528603   0.053748858273192
   0.480266022401207   0.387431941528603   0.553748858273192
   0.980266022401207   0.387431941528603   0.553748858273192
   0.480266022401207   0.887431941528603   0.553748858273192
   0.980266022401207   0.887431941528603   0.553748858273192
   0.269734557972028   0.112566684269920   0.303748858273190
   0.769734557972028   0.112566684269920   0.303748858273190
   0.269734557972028   0.612566684269920   0.303748858273190
   0.769734557972028   0.612566684269920   0.303748858273190
   0.269734557972028   0.112566684269920   0.803748858273190
   0.769734557972028   0.112566684269920   0.803748858273190
   0.269734557972028   0.612566684269920   0.803748858273190
   0.769734557972028   0.612566684269920   0.803748858273190
   0.091750427150507   0.192118955065643   0.302476751856542
   0.591750427150507   0.192118955065643   0.302476751856542
   0.091750427150507   0.692118955065643   0.302476751856542
   0.591750427150507   0.692118955065643   0.302476751856542
   0.091750427150507   0.192118955065643   0.802476751856542
   0.591750427150507   0.192118955065643   0.802476751856542
   0.091750427150507   0.692118955065643   0.802476751856542
   0.591750427150507   0.692118955065643   0.802476751856542
   0.158250153222730   0.307879670732880   0.052476751856545
   0.658250153222730   0.307879670732880   0.052476751856545
   0.158250153222730   0.807879670732880   0.052476751856545
   0.658250153222730   0.807879670732880   0.052476751856545
   0.158250153222730   0.307879670732880   0.552476751856545
   0.658250153222730   0.307879670732880   0.552476751856545
   0.158250153222730   0.807879670732880   0.552476751856545
   0.658250153222730   0.807879670732880   0.552476751856545
   0.408250153222729   0.442118955065642   0.447523538816631
   0.908250153222729   0.442118955065642   0.447523538816631
   0.408250153222729   0.942118955065642   0.447523538816631
   0.908250153222729   0.942118955065642   0.447523538816631
   0.408250153222729   0.442118955065642   0.947523538816631
   0.908250153222729   0.442118955065642   0.947523538816631
   0.408250153222729   0.942118955065642   0.947523538816631
   0.908250153222729   0.942118955065642   0.947523538816631
   0.341750427150506   0.057879670732880   0.197523538816633
   0.841750427150506   0.057879670732880   0.197523538816633
   0.341750427150506   0.557879670732880   0.197523538816633
   0.841750427150506   0.557879670732880   0.197523538816633
   0.341750427150506   0.057879670732880   0.697523538816633
   0.841750427150506   0.057879670732880   0.697523538816633
   0.341750427150506   0.557879670732880   0.697523538816633
   0.841750427150506   0.557879670732880   0.697523538816633
   0.450180255507624   0.079602010568678   0.085731340398792
   0.950180255507624   0.079602010568678   0.085731340398792
   0.450180255507624   0.579602010568678   0.085731340398792
   0.950180255507624   0.579602010568678   0.085731340398792
   0.450180255507624   0.079602010568678   0.585731340398792
   0.950180255507624   0.079602010568678   0.585731340398792
   0.450180255507624   0.579602010568678   0.585731340398792
   0.950180255507624   0.579602010568678   0.585731340398792
   0.299820324865611   0.420396615229845   0.335731340398791
   0.799820324865611   0.420396615229845   0.335731340398791
   0.299820324865611   0.920396615229845   0.335731340398791
   0.799820324865611   0.920396615229845   0.335731340398791
   0.299820324865611   0.420396615229845   0.835731340398791
   0.799820324865611   0.420396615229845   0.835731340398791
   0.299820324865611   0.920396615229845   0.835731340398791
   0.799820324865611   0.920396615229845   0.835731340398791
   0.049820324865612   0.329602010568678   0.164268950274384
   0.549820324865612   0.329602010568678   0.164268950274384
   0.049820324865612   0.829602010568678   0.164268950274384
   0.549820324865612   0.829602010568678   0.164268950274384
   0.049820324865612   0.329602010568678   0.664268950274384
   0.549820324865612   0.329602010568678   0.664268950274384
   0.049820324865612   0.829602010568678   0.664268950274384
   0.549820324865612   0.829602010568678   0.664268950274384
   0.200180255507626   0.170396615229845   0.414268950274383
   0.700180255507626   0.170396615229845   0.414268950274383
   0.200180255507626   0.670396615229845   0.414268950274383
   0.700180255507626   0.670396615229845   0.414268950274383
   0.200180255507626   0.170396615229845   0.914268950274383
   0.700180255507626   0.170396615229845   0.914268950274383
   0.200180255507626   0.670396615229845   0.914268950274383
   0.700180255507626   0.670396615229845   0.914268950274383
