 N  H 
 1.0000000000000000
     5.1304999999999996    0.0000000000000000    0.0000000000000000
     0.0000000000000000    5.1304999999999996    0.0000000000000000
     0.0000000000000000    0.0000000000000000    5.1304999999999996
 N   H  
   4  12
Cartesian
  1.0779644527926402  1.0779614534463586  1.0779549630498291
  3.6432141209900601  1.4872928406532870  4.0525423105383149
  4.0525419956293964  3.6432088048435936  1.4872943087379691
  1.4872932030538966  4.0525441630598573  3.6432067890173285
  1.9066933400780790  1.3986380507221454  0.5734407634020723
  1.3986467775045275  0.5734517433458397  1.9066844041710653
  0.5734590131586423  1.9066933976026579  1.3986372058705494
  4.4719434345148148  1.1666186576091200  4.5570576208251818
  3.9638952494027206  1.9917975394516116  3.2238094716234826
  3.1387076327350942  0.6585590951733232  3.7318664064070792
  3.7318740933360357  3.1387046466051745  0.6585559550571863
  4.5570486325958575  4.4719459943159849  1.1666276943968525
  1.9917964171813660  3.2238074351819552  3.9638807611036504
  0.6585599964742287  3.7318748398695600  3.1386952936989343
  1.1666173917649967  4.5570512085717416  4.4719402718448116
  3.2238040879471108  3.9638772674695648  1.9917990173460161
