 C  H 
 1.0000000000000000
    14.8813849694970628    0.0000000000000000    0.0000000000000000
     0.0000000000000000   18.7975701300304472    0.0000000000000000
     0.0000000000000000    0.0000000000000000   13.6923210780439089
 C   H  
 192 192
Cartesian
  7.0098877537491386  1.3313331795754781  6.7908352185304564
 14.4505802384974160  1.3313331795755374  6.7908352185304350
  7.0098877537491875 10.7301182445906722  6.7908352185305674
 14.4505802384975155 10.7301182445908516  6.7908352185304519
  7.0098877537493172  1.3313331795755892 13.6369957575528957
 14.4505802384976718  1.3313331795757744 13.6369957575523664
  7.0098877537492568 10.7301182445907894 13.6369957575528407
 14.4505802384975865 10.7301182445906829 13.6369957575523735
  6.4241555525927332  0.4446366648028063  0.8567403854648358
 13.8648480373416447  0.4446366648030701  0.8567403854650421
  6.4241555525925351  9.8434217298180737  0.8567403854647601
 13.8648480373412415  9.8434217298181199  0.8567403854646699
  6.4241555525927012  0.4446366648028015  7.7029009244865891
 13.8648480373414866  0.4446366648030014  7.7029009244870812
  6.4241555525927083  9.8434217298180577  7.7029009244867082
 13.8648480373413570  9.8434217298183047  7.7029009244868822
  0.5829402091279268  0.8857013030791037  5.9342516382939614
  8.0236326938767775  0.8857013030790153  5.9342516382939303
  0.5829402091278189 10.2844863680942886  5.9342516382936932
  8.0236326938765945 10.2844863680942336  5.9342516382935928
  0.5829402091276882  0.8857013030789754 12.7804121773156574
  8.0236326938763707  0.8857013030789770 12.7804121773155934
  0.5829402091280181 10.2844863680942407 12.7804121773157338
  8.0236326938768112 10.2844863680942478 12.7804121773160020
  6.8577518167797331  8.5130835558990849  0.9119084112400244
 14.2984443015283951  8.5130835558989286  0.9119084112398527
  6.8577518167796692 17.9118686209141522  0.9119084112398442
 14.2984443015282565 17.9118686209141380  0.9119084112395405
  6.8577518167797447  8.5130835558989997  7.7580689502617499
 14.2984443015282281  8.5130835558989872  7.7580689502616620
  6.8577518167799676 17.9118686209142410  7.7580689502619675
 14.2984443015283720 17.9118686209141948  7.7580689502619036
  1.0165366004295289  8.9541483958039887  5.9894198425396539
  8.4572290851780014  8.9541483958039141  5.9894198425393661
  1.0165366004297933 18.3529334608192727  5.9894198425400402
  8.4572290851780476 18.3529334608190808  5.9894198425394052
  1.0165366004294383  8.9541483958038395 12.8355803815614475
  8.4572290851778558  8.9541483958038750 12.8355803815613978
  1.0165366004297496 18.3529334608193260 12.8355803815619005
  8.4572290851780103 18.3529334608190631 12.8355803815615470
  0.4308036961884307  8.0674514405722348  0.0553243431983871
  7.8714961809368855  8.0674514405724054  0.0553243431985044
  0.4308036961884866 17.4662365055873572  0.0553243431985354
  7.8714961809371742 17.4662365055876769  0.0553243431989328
  0.4308036961883516  8.0674514405722615  6.9014848822203225
  7.8714961809370472  8.0674514405723805  6.9014848822203874
  0.4308036961882639 17.4662365055873749  6.9014848822205810
  7.8714961809369655 17.4662365055875277  6.9014848822204105
  4.1511497854514827  6.0307260779051388  6.7908362344718176
 11.5918422701999759  6.0307260779052054  6.7908362344717670
  4.1511497854516000 15.4295111429204805  6.7908362344719153
 11.5918422702000061 15.4295111429207026  6.7908362344718851
  4.1511497854516097  6.0307260779051504 13.6369967734937489
 11.5918422702003348  6.0307260779051779 13.6369967734934843
  4.1511497854515493 15.4295111429205090 13.6369967734937632
 11.5918422702000861 15.4295111429205978 13.6369967734936086
  7.0098889132511939  3.3680588864935106  3.3677559781682977
 14.4505813979997626  3.3680588864933823  3.3677559781681001
  7.0098889132509639 12.7668439515087400  3.3677559781680073
 14.4505813979998141 12.7668439515085286  3.3677559781679203
  7.0098889132509425  3.3680588864937362 10.2139165171897890
 14.4505813979994748  3.3680588864935901 10.2139165171896007
  7.0098889132506725 12.7668439515089585 10.2139165171895883
 14.4505813979994659 12.7668439515087577 10.2139165171897801
  4.1511508587403751  8.0674518453184341  3.3677549766224790
 11.5918433434890229  8.0674518453183932  3.3677549766225674
  4.1511508587404053 17.4662369103338655  3.3677549766226353
 11.5918433434887831 17.4662369103338015  3.3677549766226003
  4.1511508587409542  8.0674518453181374 10.2139155156444303
 11.5918433434893586  8.0674518453181001 10.2139155156445280
  4.1511508587407588 17.4662369103336133 10.2139155156444552
 11.5918433434894670 17.4662369103336452 10.2139155156444481
  3.2895416350481081  3.3680593138431987  0.0553251708003813
 10.7302341197968509  3.3680593138431529  0.0553251708002728
  3.2895416350480184 12.7668443788583552  0.0553251708006161
 10.7302341197967408 12.7668443788583321  0.0553251708002960
  3.2895416350481907  3.3680593138430228  6.9014857098223859
 10.7302341197967461  3.3680593138430925  6.9014857098222464
  3.2895416350481996 12.7668443788583481  6.9014857098225093
 10.7302341197968243 12.7668443788582415  6.9014857098223468
  0.4308045405799480  6.0307257874712068  3.4784055257890700
  7.8714970253285070  6.0307257874710904  3.4784055257893973
  0.4308045405798272 15.4295108524864126  3.4784055257888848
  7.8714970253282761 15.4295108524861302  3.4784055257891193
  0.4308045405795541  6.0307257874717282 10.3245660648107354
  7.8714970253281082  6.0307257874715354 10.3245660648108348
  0.4308045405797820 15.4295108524867217 10.3245660648106554
  7.8714970253281997 15.4295108524867004 10.3245660648106057
  3.2895425488400023  1.3313334913980464  3.4784047056745235
 10.7302350335883929  1.3313334913979018  3.4784047056746821
  3.2895425488401697 10.7301185564131565  3.4784047056745466
 10.7302350335887713 10.7301185564133288  3.4784047056746790
  3.2895425488405112  1.3313334913977615 10.3245652446965739
 10.7302350335891301  1.3313334913978701 10.3245652446965330
  3.2895425488406720 10.7301185564130943 10.3245652446963945
 10.7302350335888850 10.7301185564130108 10.3245652446967284
  4.7368827959871185  5.1440293057993003  0.8567406774766774
 12.1775752807357733  5.1440293057992070  0.8567406774766335
  4.7368827959872464 14.5428143708143232  0.8567406774764348
 12.1775752807354873 14.5428143708144137  0.8567406774764363
  4.7368827959867783  5.1440293057992177  7.7029012164989998
 12.1775752807353506  5.1440293057992941  7.7029012164989341
  4.7368827959867685 14.5428143708144564  7.7029012164989403
 12.1775752807352085 14.5428143708144511  7.7029012164988702
  6.4241560574369210  4.2547558102868539  4.2798209537022913
 13.8648485421855892  4.2547558102868104  4.2798209537020817
  6.4241560574370382 13.6535408753020242  4.2798209537023544
 13.8648485421855305 13.6535408753020722  4.2798209537019245
  6.4241560574367007  4.2547558102866887 11.1259814927241738
 13.8648485421854470  4.2547558102866887 11.1259814927242076
  6.4241560574360568 13.6535408753021645 11.1259814927233105
 13.8648485421850829 13.6535408753020633 11.1259814927236551
  4.7368831195822398  8.9541485666752330  4.2798206863392609
 12.1775756043307357  8.9541485666753271  4.2798206863394865
  4.7368831195822070 18.3529336316906075  4.2798206863394110
 12.1775756043308956 18.3529336316905152  4.2798206863392592
  4.7368831195818304  8.9541485666754941 11.1259812253618424
 12.1775756043306629  8.9541485666755225 11.1259812253615795
  4.7368831195818899 18.3529336316906040 11.1259812253618655
 12.1775756043305545 18.3529336316907390 11.1259812253619419
  2.7038094361720502  4.2547558713970890  5.9894200735833634
 10.1445019209206340  4.2547558713971272  5.9894200735832328
  2.7038094361720790 13.6535409364124174  5.9894200735833918
 10.1445019209206961 13.6535409364124867  5.9894200735833474
  2.7038094361722815  4.2547558713971902 12.8355806126050300
 10.1445019209208915  4.2547558713971716 12.8355806126049607
  2.7038094361723850 13.6535409364123392 12.8355806126049714
 10.1445019209209288 13.6535409364123623 12.8355806126048364
  1.0165368283497818  5.1440291095064437  2.5663399778642342
  8.4572293130983329  5.1440291095064055  2.5663399778643492
  1.0165368283497322 14.5428141745215402  2.5663399778640721
  8.4572293130984626 14.5428141745214745  2.5663399778642892
  1.0165368283496607  5.1440291095062705  9.4125005168864107
  8.4572293130980789  5.1440291095062962  9.4125005168862828
  1.0165368283492677 14.5428141745216788  9.4125005168858920
  8.4572293130974288 14.5428141745216895  9.4125005168855544
  2.7038096574923776  0.4446367438839042  2.5663396534774630
 10.1445021422409702  0.4446367438839156  2.5663396534773542
  2.7038096574923705  9.8434218088990555  2.5663396534773621
 10.1445021422409205  9.8434218088990750  2.5663396534776330
  2.7038096574919512  0.4446367438839681  9.4125001924999108
 10.1445021422406239  0.4446367438839278  9.4125001924997704
  2.7038096574920307  9.8434218088989827  9.4125001924999090
 10.1445021422409116  9.8434218088990733  9.4125001924996994
  3.1374053287919872  5.5850940889034577  5.9342523215698826
 10.5780978135402517  5.5850940889037126  5.9342523215701224
  3.1374053287918922 14.9838791539187746  5.9342523215700123
 10.5780978135403245 14.9838791539189184  5.9342523215700975
  3.1374053287914832  5.5850940889037446 12.7804128605921061
 10.5780978135400616  5.5850940889037517 12.7804128605921736
  3.1374053287916133 14.9838791539188083 12.7804128605923069
 10.5780978135401007 14.9838791539189025 12.7804128605921878
  0.5829407945829087  3.8136909663699834  2.5111719569411508
  8.0236332793312766  3.8136909663700234  2.5111719569411250
  0.5829407945830206 13.2124760313851528  2.5111719569412267
  8.0236332793312624 13.2124760313852718  2.5111719569409172
  0.5829407945825953  3.8136909663699390  9.3573324959627318
  8.0236332793311558  3.8136909663699465  9.3573324959626003
  0.5829407945826023 13.2124760313852700  9.3573324959624546
  8.0236332793313743 13.2124760313852168  9.3573324959626394
  3.1374061688804815  8.5130837374795565  2.5111713129884730
 10.5780986536290182  8.5130837374796684  2.5111713129885893
  3.1374061688799313 17.9118688024949542  2.5111713129888336
 10.5780986536284072 17.9118688024946664  2.5111713129889188
  3.1374061688803154  8.5130837374797377  9.3573318520106223
 10.5780986536291373  8.5130837374796950  9.3573318520104198
  3.1374061688804535 17.9118688024948263  9.3573318520104340
 10.5780986536291692 17.9118688024948689  9.3573318520103221
  4.3032864304201901  3.8136912430087739  0.9119088783555718
 11.7439789151686966  3.8136912430088739  0.9119088783556233
  4.3032864304201519 13.2124763080238701  0.9119088783555799
 11.7439789151687535 13.2124763080239376  0.9119088783555307
  4.3032864304204965  3.8136912430085110  7.7580694173770199
 11.7439789151688334  3.8136912430086594  7.7580694173772553
  4.3032864304205587 13.2124763080238612  7.7580694173773130
 11.7439789151691159 13.2124763080238914  7.7580694173772713
  6.8577523125717503  5.5850939485506812  4.3349890831714086
 14.2984447973204283  5.5850939485506572  4.3349890831713394
  6.8577523125716580 14.9838790135657973  4.3349890831713864
 14.2984447973204425 14.9838790135658542  4.3349890831712994
  6.8577523125715869  5.5850939485506759 11.1811496221927200
 14.2984447973201529  5.5850939485508224 11.1811496221927094
  6.8577523125716953 14.9838790135658275 11.1811496221930646
 14.2984447973199700 14.9838790135660176 11.1811496221926063
  4.3032870455065497  0.8857015843799375  4.3349887091426700
 11.7439795302548156  0.8857015843799092  4.3349887091428583
  4.3032870455069601 10.2844866493954505  4.3349887091422401
 11.7439795302555332 10.2844866493953351  4.3349887091423556
  4.3032870455068686  0.8857015843801238 11.1811492481643047
 11.7439795302555385  0.8857015843800449 11.1811492481642443
  4.3032870455070107 10.2844866493951717 11.1811492481644077
 11.7439795302555048 10.2844866493951930 11.1811492481644077
  6.6790040875999797  2.3629356596156836  6.7464649254109741
 14.1196965723476850  2.3629356596154176  6.7464649254103550
  6.6790040876002932 11.7617207246311128  6.7464649254113436
 14.1196965723482428 11.7617207246308570  6.7464649254109093
  6.6790040876008367  2.3629356596161459 13.5926254644339419
 14.1196965723484258  2.3629356596155180 13.5926254644330253
  6.6790040876005001 11.7617207246312656 13.5926254644336968
 14.1196965723484169 11.7617207246308677 13.5926254644330093
  5.6327596596156644  0.7800007597658516  1.5172452081893282
 13.0734521443651950  0.7800007597663390  1.5172452081906040
  5.6327596596153100 10.1787858247809790  1.5172452081890446
 13.0734521443642908 10.1787858247810963  1.5172452081895305
  5.6327596596154503  0.7800007597657254  8.3634057472110452
 13.0734521443649374  0.7800007597661707  8.3634057472122656
  5.6327596596158758 10.1787858247810554  8.3634057472113597
 13.0734521443647491 10.1787858247813752  8.3634057472120542
  1.0300382845242289  1.5676683694174816  5.2219725485401094
  8.4707307692735512  1.5676683694176725  5.2219725485407817
  1.0300382845240292 10.9664534344326903  5.2219725485399335
  8.4707307692729206 10.9664534344327222  5.2219725485401796
  1.0300382845235765  1.5676683694172435 12.0681330875614279
  8.4707307692723681  1.5676683694173592 12.0681330875615256
  1.0300382845246907 10.9664534344327897 12.0681330875625008
  8.4707307692735885 10.9664534344330082 12.0681330875629698
  6.4106547138667160  7.8311169936657610  1.6241888757618219
 13.8513471986152190  7.8311169936656100  1.6241888757617253
  6.4106547138659664 17.2299020586807110  1.6241888757608112
 13.8513471986140946 17.2299020586804339  1.6241888757607807
  6.4106547138665251  7.8311169936655487  8.4703494147832536
 13.8513471986145511  7.8311169936654048  8.4703494147831488
  6.4106547138671059 17.2299020586810130  8.4703494147839269
 13.8513471986148016 17.2299020586807252  8.4703494147833140
  1.8079341899697292  8.6187848404959251  5.3289167242845403
  9.2486266747178014  8.6187848404957155  5.3289167242839426
  1.8079341899703101 18.0175699055112482  5.3289167242850723
  9.2486266747176362 18.0175699055108254  5.3289167242838937
  1.8079341899693344  8.6187848404957066 12.1750772633061004
  9.2486266747172632  8.6187848404955893 12.1750772633057291
  1.8079341899704631 18.0175699055113618 12.1750772633071556
  9.2486266747177535 18.0175699055109035 12.1750772633058908
  0.7616871580102493  7.0358489403436941  0.0996946051724479
  8.2023796427588600  7.0358489403437128  0.0996946051726871
  0.7616871580100871 16.4346340053590900  0.0996946051723546
  8.2023796427597908 16.4346340053593423  0.0996946051734418
  0.7616871580099754  7.0358489403436346  6.9458551441941543
  8.2023796427591495  7.0358489403436755  6.9458551441945851
  0.7616871580095825 16.4346340053587703  6.9458551441938550
  8.2023796427587126 16.4346340053588236  6.9458551441942626
  4.4820334637706898  7.0623285772007236  6.7464658717662616
 11.9227259485193784  7.0623285772006961  6.7464658717660777
  4.4820334637707617 16.4611136422160129  6.7464658717662731
 11.9227259485190160 16.4611136422160946  6.7464658717664205
  4.4820334637709616  7.0623285772007520 13.5926264107879593
 11.9227259485199397  7.0623285772006330 13.5926264107875046
  4.4820334637706205 16.4611136422157927 13.5926264107883057
 11.9227259485191883 16.4611136422158069 13.5926264107880765
  6.6790053977619932  2.3364564882131988  3.3233857132742877
 14.1196978825104793  2.3364564882133680  3.3233857132740434
  6.6790053977614425 11.7352415532285264  3.3233857132736091
 14.1196978825105219 11.7352415532286436  3.3233857132740239
  6.6790053977618173  2.3364564882131882 10.1695462522960778
 14.1196978825101134  2.3364564882135097 10.1695462522958682
  6.6790053977619621 11.7352415532284660 10.1695462522962607
 14.1196978825109980 11.7352415532283665 10.1695462522966515
  4.4820344354747119  7.0358492346110921  3.3233848961188914
 11.9227269202233508  7.0358492346111170  3.3233848961188768
  4.4820344354749722 16.4346342996265236  3.3233848961186041
 11.9227269202234556 16.4346342996263139  3.3233848961186858
  4.4820344354757786  7.0358492346115122 10.1695454351397743
 11.9227269202235995  7.0358492346112023 10.1695454351405843
  4.4820344354755832 16.4346342996265982 10.1695454351399448
 11.9227269202243455 16.4346342996264738 10.1695454351398187
  2.9586581354069432  2.3364567690647511  0.0996953714100636
 10.3993506201559143  2.3364567690646569  0.0996953714096949
  2.9586581354066084 11.7352418340800870  0.0996953714105222
 10.3993506201555395 11.7352418340799662  0.0996953714100690
  2.9586581354069139  2.3364567690648435  6.9458559104320834
 10.3993506201557064  2.3364567690646805  6.9458559104317681
  2.9586581354068695 11.7352418340800853  6.9458559104322530
 10.3993506201556265 11.7352418340800888  6.9458559104319653
  0.7616879807964398  7.0623282276119532  3.5227755558556426
  8.2023804655453620  7.0623282276118520  3.5227755558561222
  0.7616879807962740 16.4611132926272994  3.5227755558554290
  8.2023804655448878 16.4611132926273207  3.5227755558555707
  0.7616879807959782  7.0623282276120625 10.3689360948773839
  8.2023804655448540  7.0623282276118653 10.3689360948776823
  0.7616879807969624 16.4611132926270152 10.3689360948781903
  8.2023804655453318 16.4611132926271253 10.3689360948781548
  2.9586588039190191  2.3629360270727187  3.5227751582945412
 10.3993512886671944  2.3629360270725406  3.5227751582948175
  2.9586588039186905 11.7617210920878126  3.5227751582948255
 10.3993512886674235 11.7617210920877397  3.5227751582948428
  2.9586588039193722  2.3629360270728292 10.3689356973160063
 10.3993512886680328  2.3629360270727955 10.3689356973158073
  2.9586588039199366 11.7617210920881838 10.3689356973155320
 10.3993512886674289 11.7617210920876847 10.3689356973167062
  5.5282803902479598  5.4793927569504577  1.5172438031856157
 12.9689728749965827  5.4793927569504977  1.5172438031855044
  5.5282803902486828 14.8781778219653464  1.5172438031850612
 12.9689728749965472 14.8781778219656928  1.5172438031856328
  5.5282803902467785  5.4793927569507757  8.3634043422087068
 12.9689728749956075  5.4793927569507295  8.3634043422084190
  5.5282803902470068 14.8781778219660552  8.3634043422086215
 12.9689728749955542 14.8781778219661582  8.3634043422086979
  5.6327584024148347  3.9193922049798502  4.9403243001683403
 13.0734508871633537  3.9193922049797800  4.9403243001683146
  5.6327584024154440 13.3181772699948038  4.9403243001687889
 13.0734508871632027 13.3181772699950525  4.9403243001681894
  5.6327584024157158  3.9193922049795114 11.7864848391911892
 13.0734508871644657  3.9193922049793981 11.7864848391917185
  5.6327584024138373 13.3181772699953935 11.7864848391894661
 13.0734508871634887 13.3181772699949974 11.7864848391905142
  5.5282790576121172  8.6187842422892196  4.9403256128724511
 12.9689715423603840  8.6187842422890846  4.9403256128728064
  5.5282790576122096 18.0175693073046617  4.9403256128720718
 12.9689715423614054 18.0175693073047860  4.9403256128715292
  5.5282790576107015  8.6187842422886973 11.7864861518955593
 12.9689715423600926  8.6187842422889709 11.7864861518948629
  5.5282790576105967 18.0175693073040009 11.7864861518954527
 12.9689715423592560 18.0175693073040755 11.7864861518954047
  1.9124138375643336  3.9193916299423055  5.3289150123776583
  9.3531063223131952  3.9193916299422447  5.3289150123772115
  1.9124138375644244 13.3181766949575113  5.3289150123775926
  9.3531063223128470 13.3181766949575202  5.3289150123774442
  1.9124138375653241  3.9193916299420142 12.1750755513985673
  9.3531063223138684  3.9193916299420328 12.1750755513985407
  1.9124138375657314 13.3181766949570175 12.1750755513982263
  9.3531063223139679 13.3181766949571259 12.1750755513983204
  1.8079328365708689  5.4793933134435466  1.9058351081056251
  9.2486253213193770  5.4793933134435058  1.9058351081057638
  1.8079328365708041 14.8781783784587507  1.9058351081055476
  9.2486253213198459 14.8781783784584309  1.9058351081062206
  1.8079328365723286  5.4793933134432002  8.7519956471289220
  9.2486253213203984  5.4793933134432464  8.7519956471285631
  1.8079328365712484 14.8781783784587525  8.7519956471277638
  9.2486253213187233 14.8781783784591024  8.7519956471269431
  1.9124119978622303  0.7800002158102108  1.9058364938301176
  9.3531044826112382  0.7800002158103625  1.9058364938294905
  1.9124119978618794 10.1787852808252559  1.9058364938302574
  9.3531044826100889 10.1787852808252328  1.9058364938306864
  1.9124119978605514  0.7800002158096230  8.7519970328533425
  9.3531044826092629  0.7800002158096113  8.7519970328530849
  1.9124119978604857 10.1787852808247656  8.7519970328534828
  9.3531044826097958 10.1787852808250072  8.7519970328527243
  2.6903079479084098  6.2670606944781087  5.2219723401937133
 10.1310004326561547  6.2670606944784515  5.2219723401945588
  2.6903079479080905 15.6658457594935303  5.2219723401940481
 10.1310004326562755 15.6658457594937275  5.2219723401943519
  2.6903079479071415  6.2670606944786389 12.0681328792170284
 10.1310004326553802  6.2670606944788041 12.0681328792173019
  2.6903079479072010 15.6658457594937683 12.0681328792170603
 10.1310004326554530 15.6658457594938803 12.0681328792171847
  1.0300379305104388  3.1317244923344774  1.7988917289981674
  8.4707304152584886  3.1317244923346332  1.7988917289978448
  1.0300379305108702 12.5305095573495482  1.7988917289986817
  8.4707304152584246 12.5305095573498129  1.7988917289977202
  1.0300379305102063  3.1317244923345973  8.6450522680201978
  8.4707304152586911  3.1317244923345657  8.6450522680200734
  1.0300379305102827 12.5305095573497223  8.6450522680201267
  8.4707304152598990 12.5305095573493919  8.6450522680214004
  2.6903082188563703  7.8311167679855336  1.7988919965595229
 10.1310007036048315  7.8311167679855007  1.7988919965595753
  2.6903082188553977 17.2299018330005538  1.7988919965605732
 10.1310007036035934 17.2299018330003477  1.7988919965608332
  2.6903082188560221  7.8311167679852227  8.6450525355814314
 10.1310007036050322  7.8311167679853542  8.6450525355810939
  2.6903082188563512 17.2299018330006746  8.6450525355810441
 10.1310007036052063 17.2299018330006000  8.6450525355806551
  4.7503845156925717  3.1317241569699026  1.6241880842722216
 12.1910770004407354  3.1317241569701162  1.6241880842726280
  4.7503845156925424 12.5305092219850405  1.6241880842723031
 12.1910770004409201 12.5305092219851968  1.6241880842723211
  4.7503845156939004  3.1317241569693568  8.4703486232927698
 12.1910770004417355  3.1317241569696117  8.4703486232934981
  4.7503845156935887 12.5305092219848309  8.4703486232930878
 12.1910770004419895 12.5305092219849072  8.4703486232932050
  6.4106541210418895  6.2670608643938515  5.0472681709274925
 13.8513466057907859  6.2670608643937511  5.0472681709278051
  6.4106541210419952 15.6658459294088956  5.0472681709274392
 13.8513466057910950 15.6658459294088477  5.0472681709280893
  6.4106541210418495  6.2670608643938985 11.8934287099496210
 13.8513466057903116  6.2670608643940602 11.8934287099497418
  6.4106541210432830 15.6658459294086843 11.8934287099511682
 13.8513466057904395 15.6658459294092047 11.8934287099496618
  4.7503842263571725  1.5676680601408799  5.0472687949058832
 12.1910767111052198  1.5676680601406503  5.0472687949062944
  4.7503842263582836 10.9664531251564163  5.0472687949047383
 12.1910767111067511 10.9664531251563346  5.0472687949049364
  4.7503842263581699  1.5676680601409994 11.8934293339263810
 12.1910767111068239  1.5676680601410606 11.8934293339261625
  4.7503842263579950 10.9664531251561108 11.8934293339266937
 12.1910767111064917 10.9664531251560771 11.8934293339267718
