 C  H 
 1.0000000000000000
    17.1200062599905571    0.0000000000000000    0.1993453543230780
     0.0000000000000000   12.0569537469227139    0.0000000000000000
   -12.8289738426575379    0.0000000000000000   18.1149506509258131
 C   H  
 224 160
Cartesian
 -1.6056297921404927  0.1913830888537519  3.3698147933359217
  6.9543733532623060  0.1913831045265948  3.4694874565402531
 -1.6056297897544702  6.2198599561832415  3.3698147821253244
  6.9543733420779299  6.2198599613307213  3.4694874611030602
 -8.0201167104876436  0.1913830836306699 12.4272901073736985
  0.5398863934877350  0.1913830501401052 12.5269628005001969
 -8.0201167087751486  6.2198599620063142 12.4272901091014631
  0.5398864176677024  6.2198599511077228 12.5269627816831992
 -0.7901148973149373  0.9601053479479802  2.5728794585515415
  7.7698882154920437  0.9601053227329885  2.6725521430227213
 -0.7901148974354356  6.9885822296912714  2.5728794673646447
  7.7698882292375497  6.9885822218484002  2.6725521428262855
 -7.2046018192282339  0.9601053545781024 11.6303547920605688
  1.3554013413912243  0.9601054065985110 11.7300274635502575
 -7.2046018225702397  6.9885822211542967 11.6303547914644696
  1.3554013136852099  6.9885822371173170 11.7300274732108232
 -0.3856728985466729  0.5044318080708149  1.2766983165960775
  8.1743302413770778  0.5044318284382272  1.3763709949746010
 -0.3856729049190869  6.5329086634817095  1.2766983103996061
  8.1743302306949541  6.5329086755628545  1.3763709888793938
 -6.8001598264048182  0.5044317918853809 10.3341736379219729
  1.7598432822105818  0.5044317427899041 10.4338463067656999
 -6.8001598203629348  6.5329086760157740 10.3341736370910571
  1.7598432999197615  6.5329086529174241 10.4338463097011083
  0.4381523695366185  1.2697704930743483  0.4355528238564111
  8.9981554918355187  1.2697704715826872  0.5352254939868246
  0.4381523770188762  7.2982473848717087  0.4355528277859187
  8.9981555012989833  7.2982473719197545  0.5352255030651806
 -5.9763345444304807  1.2697705100705077  9.4930281522648876
  2.5836686036441430  1.2697705599662379  9.5927008452007563
 -5.9763345501644354  7.2982473713877125  9.4930281512085219
  2.5836685898031093  7.2982473953138216  9.5927008333213948
  7.7219950889968887  5.2283062728204062  0.9267459512756224
 16.2819982220363464  5.2283062836787941  1.0264186337520529
  7.7219950827047334 11.2567831201657835  0.9267459371485833
 16.2819982188625758 11.2567831393530877  1.0264186217907909
  1.3075081732508842  5.2283062942493475  9.9842212878333427
  9.8675112975429400  5.2283062723250824 10.0838939537025620
  1.3075081842412197 11.2567832021661829  9.9842213013660182
  9.8675113011965614 11.2567831545507406 10.0838939554351370
  6.8765776921702919  4.4617489570528672  1.7896728411326448
 15.4365808221293097  4.4617489445638432  1.8893455055591839
  6.8765776938324210 10.4902258588422512  1.7896728666837696
 15.4365808191596052 10.4902258433446214  1.8893455371602548
  0.4620907709714190  4.4617489308776772 10.8471481393938074
  9.0220939008162730  4.4617489578635050 10.9468208445338036
  0.4620907644312015 10.4902257732167747 10.8471481205257607
  9.0220939004453964 10.4902258199243494 10.9468208336842281
  6.4971934822810153  4.9432812920838156  3.0198361021968485
 15.0571966091129852  4.9432812982542433  3.1195087919642837
  6.4971934862281833 10.9717581501627119  3.0198360787288419
 15.0571966192996349 10.9717581597648639  3.1195087597300439
  0.0827065540224689  4.9432813051178002 12.0773114547090969
  8.6427096910726355  4.9432812915712629 12.1769841040316145
  0.0827065560639250 10.9717581973607601 12.0773114699598629
  8.6427096879984457 10.9717581704958427 12.1769841157100505
 -5.5764789597385791  0.8001705616379716  8.2304020577798749
  2.9835241556465806  0.8001705137743027  8.3300747149698520
 -5.5764789597390996  6.8286474441955702  8.2304020670577724
  2.9835241642139900  6.8286474219642797  8.3300747336019292
 -11.9909658783693889  0.8001705764041477 17.2878773932467382
 -3.4309627434236303  0.8001705962999587 17.3875500806797838
 -11.9909658838538320  6.8286474322646722 17.2878773859042347
 -3.4309627509165312  6.8286474437415743 17.3875500689422324
  1.7073636429572603  4.7587064978253757  8.7215951728603507
 10.2673667825875086  4.7587065215413507  8.8212678557085109
  1.7073636302375850 10.7871833358935554  8.7215951614992484
 10.2673667784256981 10.7871833867883176  8.8212678555111417
 -4.7071232687535609  4.7587065212742212 17.7790705038555856
  3.8528798563181277  4.7587065093451306 17.8787431783763466
 -4.7071232588725760 10.7871834227885053 17.7790705132846512
  3.8528798646589562 10.7871834035062850 17.8787431830101440
  2.5311892355637724  5.5240451373469188  7.8804497310465029
 11.0911923556635035  5.5240451141160971  7.9801224033967282
  2.5311892499011175 11.5525220460229541  7.8804497390566857
 11.0911923568405211 11.5525219961012997  7.9801224099140375
 -3.8832976957594139  5.5240451144349194 16.9379250521642462
  4.6767054389610365  5.5240451263097583 17.0375977325239134
 -3.8832977078496675 11.5525219608948095 16.9379250482540868
  4.6767054298334809 11.5525219804108321 17.0375977305739106
 -4.7310614652413809  1.5667278876458512  7.3674752303141124
  3.8289416729525327  1.5667279323829906  7.4671479370210116
 -4.7310614591081492  7.5952047406935481  7.3674751975382193
  3.8289416707811301  7.5952047684632440  7.4671479031997912
 -11.1455483827872204  1.5667278640452824 16.4249505242548288
 -2.5855452546570001  1.5667278427279652 16.5246231833500943
 -11.1455483819278776  7.5952047579277373 16.4249505434011951
 -2.5855452510010095  7.5952047420087299 16.5246232024762421
  2.9356313037070136  5.0683713729905797  6.5842684954719415
 11.4956344411103597  5.0683713906911612  6.6839411767171102
  2.9356312855971813 11.0968482123538283  6.5842684954591215
 11.4956344517934923 11.0968482702232922  6.6839411620316858
 -3.4788556096317023  5.0683713910137476 15.6417438243587075
  5.0811475187202610  5.0683713838042177 15.7414164971800474
 -3.4788555918860165 11.0968482938179260 15.6417438201006327
  5.0811475264510122 11.0968482727974802 15.7414164980902775
 -4.3516771446957927  1.0851955640858824  6.1373120011286417
  4.2083259838990363  1.0851955372140178  6.2369846534866813
 -4.3516771584567673  7.1136724453147622  6.1373120361274056
  4.2083259787001834  7.1136724310873252  6.2369846846574406
 -10.7661640775674652  1.0851955741757628 15.1947873596258578
 -2.2061609497119585  1.0851955860000131 15.2944600530460324
 -10.7661640733726873  7.1136724370381019 15.1947873404874159
 -2.2061609488362306  7.1136724448073823 15.2944600363388297
  3.7511456956517968  5.8370940208004187  5.7873331104276655
 12.3111488210702262  5.8370940086080889  5.8870057836638034
  3.7511457103319588 11.8655709163789265  5.7873331047618057
 12.3111488088706391 11.8655708790609697  5.8870058046126355
 -2.6633412308511217  5.8370940085069654 14.8448084329971621
  5.8966618992284783  5.8370940136894909 14.9444811155042139
 -2.6633412460015982 11.8655708631813575 14.8448084431073077
  5.8966618938511228 11.8655708767047336 14.9444811150569841
 -0.5288555796526502  3.2056214188048968  5.7374968770232879
  8.0311475311110581  3.2056214394490223  5.8371695704048383
 -0.5288555810202881  9.2340982842162820  5.7374968882840838
  8.0311475353063102  9.2340983089484272  5.8371695663048815
 -6.9433425108654978  3.2056214275725878 14.7949722128009125
  1.6166606324286819  3.2056214169812089 14.8946448750049321
 -6.9433425262859991  9.2340983189209425 14.7949722245097330
  1.6166606389273959  9.2340982810680519 14.8946448719331919
  2.6743720560554411  2.8228556051722293  3.4196511534255545
 11.2343751702050163  2.8228556181118778  3.5193238482371441
  2.6743720627803653  8.8513324652957301  3.4196511541506940
 11.2343751576584392  8.8513325043477895  3.5193238595728791
 -3.7401148784288383  2.8228556162068918 12.4771264931936781
  4.8198882702590433  2.8228555956051142 12.5767991553156406
 -3.7401148849770638  8.8513325022252474 12.4771264929862689
  4.8198882599057580  8.8513324765720043 12.5767991679235855
 -1.3443704057496768  3.9743438368999211  6.5344321945836024
  7.2156327457026874  3.9743438041234302  6.6341048639531737
 -1.3443704070295632 10.0028207215628626  6.5344321854015472
  7.2156327414939856 10.0028206841297749  6.6341048654220058
 -7.7588573167777009  3.9743438230464343 15.5919075144596952
  0.8011457997087656  3.9743438399592601 15.6915802003018676
 -7.7588572987420559 10.0028206679976233 15.5919075086731365
  0.8011457918126396 10.0028207280312245 15.6915802005464915
  3.4898864104582450  2.0541329996190845  2.6227157083452100
 12.0498895567494877  2.0541329790539882  2.7223883750182725
  3.4898864012087101  8.0826098935481028  2.6227157051394991
 12.0498895706417706  8.0826098321775532  2.7223883689175157
 -2.9246004972398758  2.0541329820389209 11.6801910254271544
  5.6354026118510232  2.0541330144730501 11.7798637096573380
 -2.9246004878844771  8.0826098369691977 11.6801910263782318
  5.6354026223248974  8.0826098756719560 11.7798637018804708
 -1.7488124279946544  3.5186701148136508  7.8306133640463651
  6.8111906901075523  3.5186701409967340  7.9302860378378801
 -1.7488124201286026  9.5471469667060838  7.8306133707572885
  6.8111906909522446  9.5471470105876861  7.9302860400299835
 -8.1632993532999478  3.5186701230852395 16.8880886887988027
  0.3967037818028542  3.5186701138544314 16.9877613652483923
 -8.1632993655562469  9.5471470219707744 16.8880886867816358
  0.3967037874935331  9.5471469730181759 16.9877613690208733
  3.8943287371985589  2.5098067911677817  1.3265346383175478
 12.4543318614272458  2.5098068010907553  1.4262073164158335
  3.8943287464574321  8.5382836405963811  1.3265346450304616
 12.4543318538906380  8.5382836899086829  1.4262073155221080
 -2.5201581889790430  2.5098068000511247 10.3840099640370909
  6.0398449526817188  2.5098067741706744 10.4836826451098339
 -2.5201581998138241  8.5382836962450313 10.3840099617406487
  6.0398449496179119  8.5382836523621712 10.4836826462362467
 -2.5726376759858982  4.2840089084614688  8.6717588224431754
  5.9873654630567286  4.2840088819147253  8.7714315091874333
 -2.5726376849018036 10.3124858036907838  8.6717588177076035
  5.9873654627796054 10.3124857586834864  8.7714315062537231
 -8.9871245948243832  4.2840089003337534 17.7292341514512373
 -0.4271214679845838  4.2840089097096792 17.8289068249881240
 -8.9871245850909975 10.3124857474286760 17.7292341592389100
 -0.4271214729739857 10.3124857973096358 17.8289068203349039
  4.7181540425348167  1.7444680484366277  0.4853892295553933
 13.2781571752483671  1.7444680387011491  0.5850619116389502
  4.7181540335112979  7.7729449457635855  0.4853892228201542
 13.2781571806151302  7.7729448964631755  0.5850619171631384
 -1.6963328765264880  1.7444680397712846  9.5428645597459791
  6.8636702445625035  1.7444680658343410  9.6425372272218368
 -1.6963328665372663  7.7729448890493957  9.5428645647708716
  6.8636702456797796  7.7729449342214050  9.6425372303089620
 -1.2964772906755164  2.2140678330530488  8.2802385437372532
  7.2635258471127564  2.2140678075143314  8.3799112316963988
 -1.2964772950698535  8.2425447275048551  8.2802385308120066
  7.2635258463436818  8.2425446857591442  8.3799112283081545
 -7.7109642096255540  2.2140678247823233 17.3377138729933513
  0.8490389172084130  2.2140678334434951 17.4373865474198304
 -7.7109642014768154  8.2425446742338533 17.3377138815645999
  0.8490389140462929  8.2425447213890877 17.4373865389824978
  3.4419934576536053  3.8144089844003481  0.8769094082380611
 12.0019965919778251  3.8144089750366055  0.9765820863429504
  3.4419934523801103  9.8428858818791571  0.8769093941834291
 12.0019965971891480  9.8428858339948757  0.9765820910270211
 -2.9724934599118571  3.8144089757879556  9.9343847350894894
  5.5875096626588459  3.8144090012164220 10.0340574010730847
 -2.9724934536558854  9.8428858285495693  9.9343847438872839
  5.5875096647291844  9.8428858701938431 10.0340574014688482
 -0.4510599310479101  1.4475105267130557  7.4173116384832314
  8.1089431934122480  1.4475105489395796  7.5169843036800383
 -0.4510599335977692  7.4759873711313274  7.4173116730872826
  8.1089431943444961  7.4759874181621360  7.5169843061939927
 -6.8655468555272012  1.4475105303279396 16.4747869664449844
  1.6944562794350722  1.4475105297419704 16.5744596346075177
 -6.8655468597776474  7.4759874278633722 16.4747869501268447
  1.6944562800265828  7.4759873874147562 16.5744596494892207
  2.5965761551099540  4.5809664401462342  1.7398363534781376
 11.1565792791987590  4.5809664418523095  1.8395090403956287
  2.5965761548236896 10.6094432845392532  1.7398363835973170
 11.1565792753584603 10.6094433276937377  1.8395090352204817
 -3.8179107709707827  4.5809664433418069 10.7973116849808193
  4.7420923639181041  4.5809664207209559 10.8969843756247524
 -3.8179107718808956 10.6094433404029367 10.7973116627650132
  4.7420923604421592 10.6094432941153993 10.8969843825608503
 -0.0716755653562205  1.9290427813436954  6.1871483534652860
  8.4883275674136129  1.9290427677727979  6.2868210391695678
 -0.0716755547545033  7.9575196687633110  6.1871483182557041
  8.4883275667227220  7.9575196438407376  6.2868210378217668
 -6.4861624822139543  1.9290427775070889 15.2446236741171610
  2.0738406399152645  1.9290427808215485 15.3442963633422433
 -6.4861624827045024  7.9575196379768292 15.2446236886156949
  2.0738406424100475  7.9575196626801947 15.3442963497466032
  2.2171917460721349  4.0994339922216954  2.9699995305207150
 10.7771948845638743  4.0994339882365995  3.0696721951337476
  2.2171917531394087 10.1279108804198259  2.9699995015742959
 10.7771948869009542 10.1279108541058296  3.0696721985639748
 -4.1972951689457032  4.0994339882770046 12.0274748477691222
  4.3627079590586089  4.0994340022246467 12.1271475146403471
 -4.1972951736340782 10.1279108492962830 12.0274748697692910
  4.3627079642794548 10.1279108741853392 12.1271475058479918
 -1.8999350173767271  0.5527017166372016  4.3482499155465471
  6.6600681107065514  0.5527017171271522  4.4479225970644283
 -1.8999350185467501  6.5811785912413239  4.3482499191805042
  6.6600681115493234  6.5811785909216933  4.4479225957102591
 -8.3144219399605355  0.5527017178202460 13.4057252447848541
  0.2455811925764195  0.5527017179410245 13.5053979170789820
 -8.3144219397953787  6.5811785908861982 13.4057252440669643
  0.2455811898895009  6.5811785916733188 13.5053979227800518
 -0.4436414019512334  1.9308653459877958  2.9102550446968221
  8.1163617316034440  1.9308653546076415  3.0099277238519777
 -0.4436414029606472  7.9593422161678724  2.9102550433410825
  8.1163617280691938  7.9593422189861780  3.0099277213450688
 -6.8581283241031503  1.9308653433304961 11.9677303690274712
  1.7018747986412246  1.9308653250914207 12.0674030414373306
 -6.8581283231942400  7.9593422191755661 11.9677303696922230
  1.7018748046398948  7.9593422133502116 12.0674030450212566
  0.7815369205677474  2.2431243193695751  0.7722179892147167
  9.3415400532942012  2.2431243269734478  0.8718906689736222
  0.7815369182898938  8.2716011864143582  0.7722179870802599
  9.3415400499105399  8.2716011909746623  0.8718906656908898
 -5.6329500028999515  2.2431243134639787  9.8296933127198258
  2.9270531207833583  2.2431242958275810  9.9293659838802864
 -5.6329500014028371  8.2716011910961438  9.8296933140266685
  2.9270531255555685  8.2716011826948179  9.9293659884427790
  6.5390264347600668  3.4892347215863886  1.4538429544581792
 15.0990295662888272  3.4892347266921782  1.5535156338868585
  6.5390264312697557  9.5177115836532522  1.4538429494686806
 15.0990295633384601  9.5177115896641507  1.5535156289367982
  0.1245395166946841  3.4892347323439625 10.5113182847014173
  8.6845426433174318  3.4892347212623713 10.6109909569079086
  0.1245395205998991  9.5177116179172625 10.5113182895718467
  8.6845426447228551  9.5177115993766996 10.6109909589627005
  5.8533443638009590  4.3475208689646001  3.6583569933780953
 14.4133474951636966  4.3475208697068055  3.7580296687022883
  5.8533443618336465 10.3759977415974145  3.6583569963115474
 14.4133474911698922 10.3759977407322985  3.7580296740208965
 -0.5611425545954183  4.3475208705390624 12.7158323148304628
  7.9988605723872670  4.3475208689089406 12.8155049961195164
 -0.5611425545553953 10.3759977433080284 12.7158323141149641
  7.9988605737209291 10.3759977431213617 12.8155049942772319
  1.3639792954115639  3.7853525720901815  8.3849300243302718
  9.9239824223400319  3.7853525637498882  8.4846026986890060
  1.3639792998461859  9.8138294580045127  8.3849300286174824
  9.9239824233627338  9.8138294400128885  8.4846026995923776
 -5.0505076289941719  3.7853525637741630 17.4424053470227776
  3.5094955025271326  3.7853525679920059 17.5420780255871094
 -5.0505076325211267  9.8138294273735038 17.4424053436021325
  3.5094954999705754  9.8138294342189614 17.5420780231869884
 -4.3935102137484741  2.5392421747963301  7.7033050327920618
  4.1664929106903772  2.5392421573077928  7.8029777028598817
 -4.3935102114285849  8.5677190570445809  7.7033050372484206
  4.1664929152394752  8.5677190457399153  7.8029777093707056
 -10.8079971322709181  2.5392421847391948 16.7607803630123655
 -2.2479939996613885  2.5392421932518201 16.8604530438382305
 -10.8079971347286126  8.5677190499813278 16.7607803594492282
 -2.2479940028796173  8.5677190564819696 16.8604530395714107
  2.5891575713860906  4.0976115898374443  6.2468929555457002
 11.1491606989133505  4.0976115833549054  6.3465656307238181
  2.5891575760803351 10.1260884754027387  6.2468929588644704
 11.1491606979142226 10.1260884552550081  6.3465656310038625
 -3.8253293524877434  4.0976115832342579 15.3043682790131879
  4.7346737784881734  4.0976115860048390 15.4040409571365871
 -3.8253293565836581 10.1260884464879499 15.3043682764291837
  4.7346737763990463 10.1260884539763012 15.4040409556179583
 -3.7078281049756354  1.6809560258427312  5.4987909950196592
  4.8521750245320678  1.6809560265415850  5.5984636738459459
 -3.7078280999024105  7.7094329026867507  5.4987909885259389
  4.8521750271017821  7.7094329010843694  5.5984636699623849
 -10.1223150218411586  1.6809560286817038 14.5562663147207179
 -1.5623118906995122  1.6809560290356536 14.6559389900150574
 -10.1223150237395263  7.7094329011705804 14.5562663174565436
 -1.5623118915962322  7.7094329024161494 14.6559389916170559
  4.0454513203398035  5.4757750929878624  4.8088981337548331
 12.6054544501062029  5.4757750938779246  4.9085708123674987
  4.0454513192368724 11.5042519659829274  4.8088981354452507
 12.6054544525865246 11.5042519658711164  4.9085708057855229
 -2.3690356010924218  5.4757750938057157 13.8663734603368045
  6.1909675294320943  5.4757750931263622 13.9660461357153576
 -2.3690355995630532 11.5042519672383747 13.8663734572383266
  6.1909675295524149 11.5042519670781722 13.9660461360048362
 -0.2345502441724241  3.5669400278234304  4.7590617229591006
  8.3254528881576828  3.5669400283075015  4.8587343950486579
 -0.2345502430040557  9.5954169025471412  4.7590617192936353
  8.3254528875358442  9.5954169015129960  4.8587343964552492
 -6.6490371641351533  3.5669400282148098 13.8165370452289107
  1.9109659639323069  3.5669400275982359 13.9162097269893650
 -6.6490371623711395  9.5954169020034321 13.8165370415225439
  1.9109659633602414  9.5954169011803696 13.9162097279587140
  2.3800663533501267  2.4615367763368132  4.3980862514495049
 10.9400694856610663  2.4615367770451684  4.4977589232622064
  2.3800663531804851  8.4900136503648156  4.3980862512566530
 10.9400694872446902  8.4900136508678941  4.4977589196847676
 -4.0344205660512937  2.4615367769480176 13.4555615724748012
  4.5255825617541623  2.4615367766239724 13.5552342543258781
 -4.0344205659012928  8.4900136497637870 13.4555615728262286
  4.5255825633377853  8.4900136507473114 13.5552342503481018
 -1.6908439601776744  4.9451036487147988  6.1970565077335857
  6.8691591651695489  4.9451036600585043  6.2967291821541318
 -1.6908439587694386 10.9735805178390127  6.1970565093686165
  6.8691591661169342 10.9735805312364825  6.2967291826970282
 -8.1053308835107103  4.9451036534649919 15.2545318321247567
  0.4546722489044843  4.9451036477865191 15.3542045104432798
 -8.1053308875173578 10.9735805367555201 15.2545318297514712
  0.4546722509236087 10.9735805160571616 15.3542045119071311
  3.8363601858125524  1.0833732571821890  2.9600914740646669
 12.3963633128134401  1.0833732641095559  3.0597641498496699
  3.8363601885849605  7.1118501232244462  2.9600914763102892
 12.3963633099643005  7.1118501445186597  3.0597641482311961
 -2.5781267381157735  1.0833732631427162 12.0175667983313712
  5.9818763965235657  1.0833732518586003 12.1172394782470221
 -2.5781267406144801  7.1118501431579642 12.0175667964868893
  5.9818763947555960  7.1118501293479754 12.1172394775009984
 -2.9160222742089910  5.2573627091488415  8.3350936061795213
  5.6439808524098156  5.2573627185747132  8.4347662800798844
 -2.9160222715080688 11.2858395750046174  8.3350936087220155
  5.6439808528162780 11.2858395908735485  8.4347662805908037
 -9.3305091966412252  5.2573627121554303 17.3925689306134821
 -0.7705060653667302  5.2573627086682748 17.4922416089361121
 -9.3305091999147773 11.2858395947739769 17.3925689274997666
 -0.7705060636091935 11.2858395771726165 17.4922416106214733
  5.0615385143782401  0.7711141874987864  0.8220543758367911
 13.6215416430451839  0.7711141911352949  0.9217270516771682
  5.0615385173472642  6.7995910526253747  0.8220543786304227
 13.6215416411223345  6.7995910700818643  0.9217270497817006
 -1.3529484081414640  0.7711141906770197  9.8795297001037490
  7.2070547252340118  0.7711141814204020  9.9792023804878571
 -1.3529484111595680  6.7995910725983606  9.8795296973309927
  7.2070547246057028  6.7995910566908710  9.9792023798266136
 -0.1135085994953205  0.4749962420908387  7.7531414876736671
  8.4464945334333663  0.4749962333843846  7.8528141682312063
 -0.1135086029205246  6.5034731274980038  7.7531414821317099
  8.4464945329027898  6.5034731085134556  7.8528141675904495
 -6.5279955201975337  0.4749962408464815 16.8106168134612268
  2.0320076095929900  0.4749962405816530 16.9102894911381085
 -6.5279955171944346  6.5034731047578394 16.8106168172840462
  2.0320076076601170  6.5034731204354372 16.9102894883141488
  2.2590248271837181  5.5534806249634370  1.4040064828380023
 10.8190279574969335  5.5534806248236821  1.5036791595339096
  2.2590248236583497 11.5819575102922663  1.4040064774611425
 10.8190279590747664 11.5819574935401128  1.5036791612815896
 -4.1554620936516962  5.5534806240553687 10.4614818082441037
  4.4045410335288588  5.5534806328606212 10.5611544818924745
 -4.1554620907812216 11.5819574880152061 10.4614818124290565
  4.4045410336299193 11.5819575065997871 10.5611544815242180
  0.5721735867396317  1.3332822800722397  5.5486273635861298
  9.1321767163632348  1.3332822809253566  5.6483000408276451
  0.5721735825908454  7.3617591560251601  5.5486273692541630
  9.1321767164791225  7.3617591541884293  5.6483000407362445
 -5.8423133360161454  1.3332822812793268 14.6061026907214213
  2.7176897967097422  1.3332822791647616 14.7057753646907781
 -5.8423133351555352  7.3617591546251751 14.6061026892709727
  2.7176897954608061  7.3617591532075179 14.7057753664770097
  1.5733425790343087  4.6951945943566749  3.6085205779488159
 10.1333457061473702  4.6951945966694026  3.7081932584170785
  1.5733425759810582 10.7236714695246160  3.6085205821787092
 10.1333457056756622 10.7236714707233869  3.7081932586728525
 -4.8411443443557625  4.6951945960311079 12.6659959057304174
  3.7188587858229787  4.6951945953627083 12.7656685831917400
 -4.8411443422467357 10.7236714684544410 12.6659959026626332
  3.7188587840941767 10.7236714701021825 12.7656685852928184
