 C  H  O 
 1.0000000000000000
    25.0000000000000000    0.0000000000000000    0.0000000000000000
     0.0000000000000000   25.0000000000000000    0.0000000000000000
     0.0000000000000000    0.0000000000000000   25.0000000000000000
 C   H   O  
   6   8   2
Cartesian
 11.8854949999999988 11.1862700000000004 12.3188299999999984
 13.3805650000000007 11.3865499999999997 12.0367199999999990
 12.9591349999999998 13.7265400000000000 13.0216799999999999
 11.7846849999999996 13.7420700000000000 12.0343099999999978
 13.9539350000000013 12.6097499999999982 12.7385299999999990
 11.0492950000000008 12.4107500000000002 11.9733899999999984
 13.9782550000000008 10.5118299999999998 12.3149199999999990
 13.5364649999999997 11.5393399999999993 10.9555199999999999
 11.7339850000000006 10.9936399999999992 13.3942699999999988
 12.5810849999999999 13.5604199999999988 14.0444799999999983
 13.4991950000000003 14.6792999999999996 13.0426000000000002
 12.1586949999999998 13.9442399999999989 11.0164999999999988
 11.0601349999999989 14.5317899999999991 12.2602199999999986
 11.4734949999999998 10.3206999999999987 11.7889999999999979
 15.1262550000000005 12.6892999999999994 13.0529799999999980
  9.8737449999999995 12.3306900000000006 11.6712199999999982
