 C  H  O                                
   1.0000000000000000     
    20.0000000000000000    0.0000000000000000    0.0000000000000000
     0.0000000000000000   20.0000000000000000    0.0000000000000000
     0.0000000000000000    0.0000000000000000   20.0000000000000000
   C    H    O 
     2     2     4
Direct
  0.2946101799493157  0.2910306386972091  0.2668022868565474
  0.2579736950507233  0.3320857363033828  0.3218012131438910
  0.2399102393716613  0.2200467319721207  0.2973816776993396
  0.3126736356281360  0.4030696430273912  0.2912218223003243
  0.3370201113394850  0.3155680732318766  0.2312113222980416
  0.2155637636608453  0.3075483017671734  0.3573921777016649
  0.2744777686905204  0.2268002659486231  0.2632124074762415
  0.2781061063093124  0.3963161090522245  0.3253910925239482

  0.00000000E+00  0.00000000E+00  0.00000000E+00
  0.00000000E+00  0.00000000E+00  0.00000000E+00
  0.00000000E+00  0.00000000E+00  0.00000000E+00
  0.00000000E+00  0.00000000E+00  0.00000000E+00
  0.00000000E+00  0.00000000E+00  0.00000000E+00
  0.00000000E+00  0.00000000E+00  0.00000000E+00
  0.00000000E+00  0.00000000E+00  0.00000000E+00
  0.00000000E+00  0.00000000E+00  0.00000000E+00
