 C  H  O 
 1.0000000000000000
     6.7003612787555307    0.0000000000000000   -0.0504234658097007
     0.0000000000000000    6.1966611278587909   -0.0000000000000000
    -1.2318013847533356   -0.0000000000000000    6.8377208733513406
 C   H   O  
  12  16   4
Selective dynamics
Cartesian
  2.3351655019634192  1.0408396415466830  3.0370336346474129   T   T   T
  3.1333997827217157  4.1391702054760433  3.7502105112316553   T   T   T
  3.1557423160789586  1.0501770265536865  1.7499595588902206   T   T   T
  2.3128229686061750  4.1485075904830682  5.0372845869888438   T   T   T
  2.3180837112624078  1.3319912419796971  0.4813699186686149   T   T   T
  3.1504815734227227  4.4303218059090606  6.3058742272104329   T   T   T
  1.0922821266846117  0.4317499153463605  0.3920080624051279   T   T   T
  4.3762831580004953  3.5300804792757439  6.3952360834739386   T   T   T
  0.3569945912240560  0.1540632024218844  1.7016440451442845   T   T   T
  5.1115706934610730  3.2523937663512714  5.0856001007347809   T   T   T
  0.8226028128299978  1.0441538752453874  2.8807480043535620   T   T   T
  4.6459624718551229  4.1424844391747593  3.9064961415255035   T   T   T
  3.9637160162849669  1.7797977896017776  1.8491012451818933   T   T   T
  1.5048492684001802  4.8781283535311522  4.9381429006971693   T   T   T
  3.6230853990404150  0.0613793951916764  1.6803024739393624   T   T   T
  1.8454798856447190  3.1597099591210611  5.1069416719396976   T   T   T
  1.9424544268006418  2.3632580293744585  0.5295483345794758   T   T   T
  3.5261108578844884  5.4615885933038548  6.2576958112995902   T   T   T
  1.6812937349804855  1.2257741184755870  6.4099305888186553   T   T   T
  3.7872715497046530  4.3241046824049505  0.3773135570604076   T   T   T
  0.5241327730263585  5.2928166390205869  1.9374433756727276   T   T   T
  4.9444325116587562  2.1944860750911959  4.8498007702063486   T   T   T
  5.9874688938487024  0.2795771935031393  1.4740938157909755   T   T   T
 -0.5189036091635683  3.3779077574325211  5.3131503300880851   T   T   T
  0.5360123252790422  2.0849328954399806  2.6719254302414099   T   T   T
  4.9325529594060855  5.1832634593693738  4.1153187156376640   T   T   T
  0.3558508290241472  0.7463986411266198  3.8227957150066478   T   T   T
  5.1127144556609725  3.8447292050560069  2.9644484308724186   T   T   T
  2.8858629723780429  1.0252179652559357  4.1379700408094378   T   T   T
  2.5827023123070831  4.1235485291852996  2.6492741050696398   T   T   T
 -0.5119001167356889  6.1305183741878597  6.1687989220116881   T   T   T
  5.9804654014208225  3.0321878102584616  0.6184452238673750   T   T   T
