 C  H  O 
 1.0000000000000000
    21.8635523999999997    0.0000000000000000   -0.0258568000000000
     0.0000000000000000   17.4804622000000016    0.0000000000000000
    -0.5845939999999999    0.0000000000000000   20.4227847999999987
 C   H   O  
 256 384 256
Cartesian
  0.3081198016926919  8.1494655500000004  4.9473159408657956
  5.0117198016926920  0.5906655500000006  0.1519159408657953
  0.3811198016926919  4.9607655500000005  2.3945159408657948
  4.9386198016926919  3.7793655500000005  2.7048159408657955
  1.3235198016926917  8.4467655500000003  3.8714159408657949
  3.9963198016926920  0.2934655500000006  1.2278159408657954
  1.3965198016926919  4.6635655500000004  1.3185159408657954
  3.9232198016926914  4.0766655500000004  3.7807159408657953
  0.1619713016926920  8.1494655500000004 10.0530121408657962
  4.8655713016926914  0.5906655500000006  5.2576121408657954
  0.2349713016926919  4.9607655500000005  7.5002121408657958
  4.7924713016926921  3.7793655500000005  7.8105121408657947
  1.1773713016926919  8.4467655500000003  8.9771121408657955
  3.8501713016926917  0.2934655500000006  6.3335121408657953
  1.2503713016926918  4.6635655500000004  6.4242121408657962
  3.7770713016926916  4.0766655500000004  8.8864121408657955
  5.7740079016926931  8.1494655500000004  4.9408517408657957
 10.4776079016926928  0.5906655500000006  0.1454517408657953
  5.8470079016926926  4.9607655500000005  2.3880517408657949
 10.4045079016926927  3.7793655500000005  2.6983517408657955
  6.7894079016926918  8.4467655500000003  3.8649517408657950
  9.4622079016926932  0.2934655500000006  1.2213517408657955
  6.8624079016926931  4.6635655500000004  1.3120517408657952
  9.3891079016926948  4.0766655500000004  3.7742517408657954
  5.6278594016926924  8.1494655500000004 10.0465479408657963
 10.3314594016926922  0.5906655500000006  5.2511479408657955
  5.7008594016926928  4.9607655500000005  7.4937479408657950
 10.2583594016926938  3.7793655500000005  7.8040479408657966
  6.6432594016926920  8.4467655500000003  8.9706479408657955
  9.3160594016926925  0.2934655500000006  6.3270479408657954
  6.7162594016926924  4.6635655500000004  6.4177479408657963
  9.2429594016926941  4.0766655500000004  8.8799479408657955
  0.0158228016926920  8.1494655500000004 15.1587083408657950
  4.7194228016926933  0.5906655500000006 10.3633083408657942
  0.0888228016926919  4.9607655500000005 12.6059083408657955
  4.6463228016926923  3.7793655500000005 12.9162083408657953
  1.0312228016926916  8.4467655500000003 14.0828083408657925
  3.7040228016926919  0.2934655500000006 11.4392083408657950
  1.1042228016926918  4.6635655500000004 11.5299083408657950
  3.6309228016926913  4.0766655500000004 13.9921083408657960
 -0.1303256983073080  8.1494655500000004 20.2644045408657973
  4.5732743016926918  0.5906655500000006 15.4690045408657948
 -0.0573256983073081  4.9607655500000005 17.7116045408657961
  4.5001743016926925  3.7793655500000005 18.0219045408657941
  0.8850743016926919  8.4467655500000003 19.1885045408657930
  3.5578743016926921  0.2934655500000006 16.5449045408657938
  0.9580743016926918  4.6635655500000004 16.6356045408657955
  3.4847743016926915  4.0766655500000004 19.0978045408657948
  5.4817109016926935  8.1494655500000004 15.1522441408657951
 10.1853109016926933  0.5906655500000006 10.3568441408657943
  5.5547109016926930  4.9607655500000005 12.5994441408657956
 10.1122109016926931  3.7793655500000005 12.9097441408657954
  6.4971109016926922  8.4467655500000003 14.0763441408657926
  9.1699109016926936  0.2934655500000006 11.4327441408657950
  6.5701109016926935  4.6635655500000004 11.5234441408657950
  9.0968109016926935  4.0766655500000004 13.9856441408657961
  5.3355624016926928  8.1494655500000004 20.2579403408657939
 10.0391624016926926  0.5906655500000006 15.4625403408657949
  5.4085624016926932  4.9607655500000005 17.7051403408657961
  9.9660624016926924  3.7793655500000005 18.0154403408657942
  6.3509624016926924  8.4467655500000003 19.1820403408657967
  9.0237624016926929  0.2934655500000006 16.5384403408657938
  6.4239624016926928  4.6635655500000004 16.6291403408657956
  8.9506624016926946  4.0766655500000004 19.0913403408657949
  0.3081198016926919 16.8896966500000012  4.9473159408657956
  5.0117198016926920  9.3308966500000032  0.1519159408657953
  0.3811198016926919 13.7009966500000022  2.3945159408657948
  4.9386198016926919 12.5195966500000004  2.7048159408657955
  1.3235198016926917 17.1869966500000011  3.8714159408657949
  3.9963198016926920  9.0336966500000013  1.2278159408657954
  1.3965198016926919 13.4037966500000003  1.3185159408657954
  3.9232198016926914 12.8168966500000003  3.7807159408657953
  0.1619713016926920 16.8896966500000012 10.0530121408657962
  4.8655713016926914  9.3308966500000032  5.2576121408657954
  0.2349713016926919 13.7009966500000022  7.5002121408657958
  4.7924713016926921 12.5195966500000004  7.8105121408657947
  1.1773713016926919 17.1869966500000011  8.9771121408657955
  3.8501713016926917  9.0336966500000013  6.3335121408657953
  1.2503713016926918 13.4037966500000003  6.4242121408657962
  3.7770713016926916 12.8168966500000003  8.8864121408657955
  5.7740079016926931 16.8896966500000012  4.9408517408657957
 10.4776079016926928  9.3308966500000032  0.1454517408657953
  5.8470079016926926 13.7009966500000022  2.3880517408657949
 10.4045079016926927 12.5195966500000004  2.6983517408657955
  6.7894079016926918 17.1869966500000011  3.8649517408657950
  9.4622079016926932  9.0336966500000013  1.2213517408657955
  6.8624079016926931 13.4037966500000003  1.3120517408657952
  9.3891079016926948 12.8168966500000003  3.7742517408657954
  5.6278594016926924 16.8896966500000012 10.0465479408657963
 10.3314594016926922  9.3308966500000032  5.2511479408657955
  5.7008594016926928 13.7009966500000022  7.4937479408657950
 10.2583594016926938 12.5195966500000004  7.8040479408657966
  6.6432594016926920 17.1869966500000011  8.9706479408657955
  9.3160594016926925  9.0336966500000013  6.3270479408657954
  6.7162594016926924 13.4037966500000003  6.4177479408657963
  9.2429594016926941 12.8168966500000003  8.8799479408657955
  0.0158228016926920 16.8896966500000012 15.1587083408657950
  4.7194228016926933  9.3308966500000032 10.3633083408657942
  0.0888228016926919 13.7009966500000022 12.6059083408657955
  4.6463228016926923 12.5195966500000004 12.9162083408657953
  1.0312228016926916 17.1869966500000011 14.0828083408657925
  3.7040228016926919  9.0336966500000013 11.4392083408657950
  1.1042228016926918 13.4037966500000003 11.5299083408657950
  3.6309228016926913 12.8168966500000003 13.9921083408657960
 -0.1303256983073080 16.8896966500000012 20.2644045408657973
  4.5732743016926918  9.3308966500000032 15.4690045408657948
 -0.0573256983073081 13.7009966500000022 17.7116045408657961
  4.5001743016926925 12.5195966500000004 18.0219045408657941
  0.8850743016926919 17.1869966500000011 19.1885045408657930
  3.5578743016926921  9.0336966500000013 16.5449045408657938
  0.9580743016926918 13.4037966500000003 16.6356045408657955
  3.4847743016926915 12.8168966500000003 19.0978045408657948
  5.4817109016926935 16.8896966500000012 15.1522441408657951
 10.1853109016926933  9.3308966500000032 10.3568441408657943
  5.5547109016926930 13.7009966500000022 12.5994441408657956
 10.1122109016926931 12.5195966500000004 12.9097441408657954
  6.4971109016926922 17.1869966500000011 14.0763441408657926
  9.1699109016926936  9.0336966500000013 11.4327441408657950
  6.5701109016926935 13.4037966500000003 11.5234441408657950
  9.0968109016926935 12.8168966500000003 13.9856441408657961
  5.3355624016926928 16.8896966500000012 20.2579403408657939
 10.0391624016926926  9.3308966500000032 15.4625403408657949
  5.4085624016926932 13.7009966500000022 17.7051403408657961
  9.9660624016926924 12.5195966500000004 18.0154403408657942
  6.3509624016926924 17.1869966500000011 19.1820403408657967
  9.0237624016926929  9.0336966500000013 16.5384403408657938
  6.4239624016926928 13.4037966500000003 16.6291403408657956
  8.9506624016926946 12.8168966500000003 19.0913403408657949
 11.2398960016926921  8.1494655500000004  4.9343875408657958
 15.9434960016926919  0.5906655500000006  0.1389875408657953
 11.3128960016926943  4.9607655500000005  2.3815875408657954
 15.8703960016926917  3.7793655500000005  2.6918875408657961
 12.2552960016926935  8.4467655500000003  3.8584875408657955
 14.9280960016926922  0.2934655500000006  1.2148875408657953
 12.3282960016926921  4.6635655500000004  1.3055875408657953
 14.8549960016926921  4.0766655500000004  3.7677875408657950
 11.0937475016926932  8.1494655500000004 10.0400837408657964
 15.7973475016926930  0.5906655500000006  5.2446837408657956
 11.1667475016926936  4.9607655500000005  7.4872837408657960
 15.7242475016926928  3.7793655500000005  7.7975837408657966
 12.1091475016926928  8.4467655500000003  8.9641837408657956
 14.7819475016926916  0.2934655500000006  6.3205837408657954
 12.1821475016926932  4.6635655500000004  6.4112837408657954
 14.7088475016926914  4.0766655500000004  8.8734837408657956
 16.7057841016926929  8.1494655500000004  4.9279233408657968
 21.4093841016926945  0.5906655500000006  0.1325233408657953
 16.7787841016926933  4.9607655500000005  2.3751233408657955
 21.3362841016926907  3.7793655500000005  2.6854233408657961
 17.7211841016926925  8.4467655500000003  3.8520233408657956
 20.3939841016926984  0.2934655500000006  1.2084233408657954
 17.7941841016926929  4.6635655500000004  1.2991233408657954
 20.3208841016926947  4.0766655500000004  3.7613233408657951
 16.5596356016926940  8.1494655500000004 10.0336195408657964
 21.2632356016926920  0.5906655500000006  5.2382195408657957
 16.6326356016926944  4.9607655500000005  7.4808195408657951
 21.1901356016926918  3.7793655500000005  7.7911195408657958
 17.5750356016926901  8.4467655500000003  8.9577195408657957
 20.2478356016926924  0.2934655500000006  6.3141195408657964
 17.6480356016926905  4.6635655500000004  6.4048195408657955
 20.1747356016926958  4.0766655500000004  8.8670195408657957
 10.9475990016926925  8.1494655500000004 15.1457799408657952
 15.6511990016926923  0.5906655500000006 10.3503799408657944
 11.0205990016926929  4.9607655500000005 12.5929799408657956
 15.5780990016926921  3.7793655500000005 12.9032799408657954
 11.9629990016926939  8.4467655500000003 14.0698799408657962
 14.6357990016926962  0.2934655500000006 11.4262799408657951
 12.0359990016926925  4.6635655500000004 11.5169799408657951
 14.5626990016926943  4.0766655500000004 13.9791799408657962
 10.8014505016926918  8.1494655500000004 20.2514761408657975
 15.5050505016926916  0.5906655500000006 15.4560761408657950
 10.8744505016926940  4.9607655500000005 17.6986761408657962
 15.4319505016926950  3.7793655500000005 18.0089761408657942
 11.8168505016926932  8.4467655500000003 19.1755761408657932
 14.4896505016926920  0.2934655500000006 16.5319761408657939
 11.8898505016926936  4.6635655500000004 16.6226761408657957
 14.4165505016926918  4.0766655500000004 19.0848761408657914
 16.4134871016926915  8.1494655500000004 15.1393157408657952
 21.1170871016926931  0.5906655500000006 10.3439157408657945
 16.4864871016926919  4.9607655500000005 12.5865157408657957
 21.0439871016926965  3.7793655500000005 12.8968157408657955
 17.4288871016926912  8.4467655500000003 14.0634157408657963
 20.1016871016926970  0.2934655500000006 11.4198157408657952
 17.5018871016926916  4.6635655500000004 11.5105157408657952
 20.0285871016926968  4.0766655500000004 13.9727157408657963
 16.2673386016926926  8.1494655500000004 20.2450119408657940
 20.9709386016926942  0.5906655500000006 15.4496119408657950
 16.3403386016926930  4.9607655500000005 17.6922119408657963
 20.8978386016926905  3.7793655500000005 18.0025119408657943
 17.2827386016926923  8.4467655500000003 19.1691119408657968
 19.9555386016926981  0.2934655500000006 16.5255119408657940
 17.3557386016926927  4.6635655500000004 16.6162119408657958
 19.8824386016926944  4.0766655500000004 19.0784119408657915
 11.2398960016926921 16.8896966500000012  4.9343875408657958
 15.9434960016926919  9.3308966500000032  0.1389875408657953
 11.3128960016926943 13.7009966500000022  2.3815875408657954
 15.8703960016926917 12.5195966500000004  2.6918875408657961
 12.2552960016926935 17.1869966500000011  3.8584875408657955
 14.9280960016926922  9.0336966500000013  1.2148875408657953
 12.3282960016926921 13.4037966500000003  1.3055875408657953
 14.8549960016926921 12.8168966500000003  3.7677875408657950
 11.0937475016926932 16.8896966500000012 10.0400837408657964
 15.7973475016926930  9.3308966500000032  5.2446837408657956
 11.1667475016926936 13.7009966500000022  7.4872837408657960
 15.7242475016926928 12.5195966500000004  7.7975837408657966
 12.1091475016926928 17.1869966500000011  8.9641837408657956
 14.7819475016926916  9.0336966500000013  6.3205837408657954
 12.1821475016926932 13.4037966500000003  6.4112837408657954
 14.7088475016926914 12.8168966500000003  8.8734837408657956
 16.7057841016926929 16.8896966500000012  4.9279233408657968
 21.4093841016926945  9.3308966500000032  0.1325233408657953
 16.7787841016926933 13.7009966500000022  2.3751233408657955
 21.3362841016926907 12.5195966500000004  2.6854233408657961
 17.7211841016926925 17.1869966500000011  3.8520233408657956
 20.3939841016926984  9.0336966500000013  1.2084233408657954
 17.7941841016926929 13.4037966500000003  1.2991233408657954
 20.3208841016926947 12.8168966500000003  3.7613233408657951
 16.5596356016926940 16.8896966500000012 10.0336195408657964
 21.2632356016926920  9.3308966500000032  5.2382195408657957
 16.6326356016926944 13.7009966500000022  7.4808195408657951
 21.1901356016926918 12.5195966500000004  7.7911195408657958
 17.5750356016926901 17.1869966500000011  8.9577195408657957
 20.2478356016926924  9.0336966500000013  6.3141195408657964
 17.6480356016926905 13.4037966500000003  6.4048195408657955
 20.1747356016926958 12.8168966500000003  8.8670195408657957
 10.9475990016926925 16.8896966500000012 15.1457799408657952
 15.6511990016926923  9.3308966500000032 10.3503799408657944
 11.0205990016926929 13.7009966500000022 12.5929799408657956
 15.5780990016926921 12.5195966500000004 12.9032799408657954
 11.9629990016926939 17.1869966500000011 14.0698799408657962
 14.6357990016926962  9.0336966500000013 11.4262799408657951
 12.0359990016926925 13.4037966500000003 11.5169799408657951
 14.5626990016926943 12.8168966500000003 13.9791799408657962
 10.8014505016926918 16.8896966500000012 20.2514761408657975
 15.5050505016926916  9.3308966500000032 15.4560761408657950
 10.8744505016926940 13.7009966500000022 17.6986761408657962
 15.4319505016926950 12.5195966500000004 18.0089761408657942
 11.8168505016926932 17.1869966500000011 19.1755761408657932
 14.4896505016926920  9.0336966500000013 16.5319761408657939
 11.8898505016926936 13.4037966500000003 16.6226761408657957
 14.4165505016926918 12.8168966500000003 19.0848761408657914
 16.4134871016926915 16.8896966500000012 15.1393157408657952
 21.1170871016926931  9.3308966500000032 10.3439157408657945
 16.4864871016926919 13.7009966500000022 12.5865157408657957
 21.0439871016926965 12.5195966500000004 12.8968157408657955
 17.4288871016926912 17.1869966500000011 14.0634157408657963
 20.1016871016926970  9.0336966500000013 11.4198157408657952
 17.5018871016926916 13.4037966500000003 11.5105157408657952
 20.0285871016926968 12.8168966500000003 13.9727157408657963
 16.2673386016926926 16.8896966500000012 20.2450119408657940
 20.9709386016926942  9.3308966500000032 15.4496119408657950
 16.3403386016926930 13.7009966500000022 17.6922119408657963
 20.8978386016926905 12.5195966500000004 18.0025119408657943
 17.2827386016926923 17.1869966500000011 19.1691119408657968
 19.9555386016926981  9.0336966500000013 16.5255119408657940
 17.3557386016926927 13.4037966500000003 16.6162119408657958
 19.8824386016926944 12.8168966500000003 19.0784119408657915
  5.1888198016926914  7.2771655500000003  4.6038159408657950
  0.1309198016926919  1.4629655500000007  0.4955159408657954
  5.2619198016926916  5.8331655500000004  2.0509159408657953
  0.0578198016926919  2.9070655500000009  3.0483159408657952
  0.9992198016926919  7.8017655500000007  0.7289159408657951
  4.3206198016926924  0.9384655500000005  4.3703159408657957
  0.9261198016926921  5.3085655500000009  3.2818159408657954
  4.3936198016926920  3.4316655500000013  1.8175159408657953
  2.9177198016926917  7.7299655500000011  3.0256159408657948
  2.4020198016926924  1.0101655500000006  2.0737159408657955
  2.9908198016926919  5.3802655500000007  0.4727159408657953
  2.3290198016926920  3.3598655500000012  4.6265159408657963
  5.0426713016926916  7.2771655500000003  9.7095121408657956
 -0.0152286983073081  1.4629655500000007  5.6012121408657949
  5.1157713016926918  5.8331655500000004  7.1566121408657954
 -0.0883286983073081  2.9070655500000009  8.1540121408657953
  0.8530713016926919  7.8017655500000007  5.8346121408657954
  4.1744713016926918  0.9384655500000005  9.4760121408657962
  0.7799713016926922  5.3085655500000009  8.3875121408657947
  4.2474713016926922  3.4316655500000013  6.9232121408657950
  2.7715713016926919  7.7299655500000011  8.1313121408657949
  2.2558713016926917  1.0101655500000006  7.1794121408657947
  2.8446713016926917  5.3802655500000007  5.5784121408657956
  2.1828713016926917  3.3598655500000012  9.7322121408657960
 10.6547079016926922  7.2771655500000003  4.5973517408657951
  5.5968079016926922  1.4629655500000007  0.4890517408657953
 10.7278079016926942  5.8331655500000004  2.0444517408657954
  5.5237079016926929  2.9070655500000009  3.0418517408657952
  6.4651079016926927  7.8017655500000007  0.7224517408657952
  9.7865079016926941  0.9384655500000005  4.3638517408657957
  6.3920079016926916  5.3085655500000009  3.2753517408657955
  9.8595079016926928  3.4316655500000013  1.8110517408657953
  8.3836079016926934  7.7299655500000011  3.0191517408657953
  7.8679079016926927  1.0101655500000006  2.0672517408657956
  8.4567079016926918  5.3802655500000007  0.4662517408657952
  7.7949079016926923  3.3598655500000012  4.6200517408657955
 10.5085594016926951  7.2771655500000003  9.7030479408657957
  5.4506594016926915  1.4629655500000007  5.5947479408657950
 10.5816594016926935  5.8331655500000004  7.1501479408657955
  5.3775594016926931  2.9070655500000009  8.1475479408657954
  6.3189594016926929  7.8017655500000007  5.8281479408657955
  9.6403594016926952  0.9384655500000005  9.4695479408657945
  6.2458594016926918  5.3085655500000009  8.3810479408657947
  9.7133594016926921  3.4316655500000013  6.9167479408657950
  8.2374594016926928  7.7299655500000011  8.1248479408657950
  7.7217594016926929  1.0101655500000006  7.1729479408657948
  8.3105594016926929  5.3802655500000007  5.5719479408657957
  7.6487594016926925  3.3598655500000012  9.7257479408657961
  4.8965228016926927  7.2771655500000003 14.8152083408657962
 -0.1613771983073081  1.4629655500000007 10.7069083408657928
  4.9696228016926920  5.8331655500000004 12.2623083408657951
 -0.2344771983073081  2.9070655500000009 13.2597083408657959
  0.7069228016926917  7.8017655500000007 10.9403083408657924
  4.0283228016926920  0.9384655500000005 14.5817083408657950
  0.6338228016926921  5.3085655500000009 13.4932083408657952
  4.1013228016926924  3.4316655500000013 12.0289083408657937
  2.6254228016926917  7.7299655500000011 13.2370083408657955
  2.1097228016926923  1.0101655500000006 12.2851083408657971
  2.6985228016926919  5.3802655500000007 10.6841083408657944
  2.0367228016926919  3.3598655500000012 14.8379083408657948
  4.7503743016926929  7.2771655500000003 19.9209045408657950
 -0.3075256983073081  1.4629655500000007 15.8126045408657951
  4.8234743016926922  5.8331655500000004 17.3680045408657939
 -0.3806256983073081  2.9070655500000009 18.3654045408657964
  0.5607743016926917  7.8017655500000007 16.0460045408657948
  3.8821743016926922  0.9384655500000005 19.6874045408657956
  0.4876743016926921  5.3085655500000009 18.5989045408657994
  3.9551743016926926  3.4316655500000013 17.1346045408657943
  2.4792743016926924  7.7299655500000011 18.3427045408657960
  1.9635743016926916  1.0101655500000006 17.3908045408657941
  2.5523743016926916  5.3802655500000007 15.7898045408657932
  1.8905743016926915  3.3598655500000012 19.9436045408657954
 10.3624109016926926  7.2771655500000003 14.8087441408657963
  5.3045109016926935  1.4629655500000007 10.7004441408657929
 10.4355109016926946  5.8331655500000004 12.2558441408657952
  5.2314109016926933  2.9070655500000009 13.2532441408657959
  6.1728109016926931  7.8017655500000007 10.9338441408657925
  9.4942109016926945  0.9384655500000005 14.5752441408657951
  6.0997109016926920  5.3085655500000009 13.4867441408657953
  9.5672109016926932  3.4316655500000013 12.0224441408657938
  8.0913109016926938  7.7299655500000011 13.2305441408657956
  7.5756109016926931  1.0101655500000006 12.2786441408657971
  8.1644109016926922  5.3802655500000007 10.6776441408657945
  7.5026109016926927  3.3598655500000012 14.8314441408657949
 10.2162624016926955  7.2771655500000003 19.9144403408657915
  5.1583624016926919  1.4629655500000007 15.8061403408657952
 10.2893624016926939  5.8331655500000004 17.3615403408657940
  5.0852624016926926  2.9070655500000009 18.3589403408657930
  6.0266624016926933  7.8017655500000007 16.0395403408657948
  9.3480624016926939  0.9384655500000005 19.6809403408657957
  5.9535624016926922  5.3085655500000009 18.5924403408657923
  9.4210624016926925  3.4316655500000013 17.1281403408657944
  7.9451624016926932  7.7299655500000011 18.3362403408657926
  7.4294624016926933  1.0101655500000006 17.3843403408657942
  8.0182624016926933  5.3802655500000007 15.7833403408657933
  7.3564624016926929  3.3598655500000012 19.9371403408657955
  5.1888198016926914 16.0173966500000020  4.6038159408657950
  0.1309198016926919 10.2031966500000024  0.4955159408657954
  5.2619198016926916 14.5733966500000029  2.0509159408657953
  0.0578198016926919 11.6472966500000013  3.0483159408657952
  0.9992198016926919 16.5419966500000015  0.7289159408657951
  4.3206198016926924  9.6786966500000009  4.3703159408657957
  0.9261198016926921 14.0487966500000017  3.2818159408657954
  4.3936198016926920 12.1718966500000025  1.8175159408657953
  2.9177198016926917 16.4701966500000019  3.0256159408657948
  2.4020198016926924  9.7503966500000008  2.0737159408657955
  2.9908198016926919 14.1204966500000015  0.4727159408657953
  2.3290198016926920 12.1000966500000011  4.6265159408657963
  5.0426713016926916 16.0173966500000020  9.7095121408657956
 -0.0152286983073081 10.2031966500000024  5.6012121408657949
  5.1157713016926918 14.5733966500000029  7.1566121408657954
 -0.0883286983073081 11.6472966500000013  8.1540121408657953
  0.8530713016926919 16.5419966500000015  5.8346121408657954
  4.1744713016926918  9.6786966500000009  9.4760121408657962
  0.7799713016926922 14.0487966500000017  8.3875121408657947
  4.2474713016926922 12.1718966500000025  6.9232121408657950
  2.7715713016926919 16.4701966500000019  8.1313121408657949
  2.2558713016926917  9.7503966500000008  7.1794121408657947
  2.8446713016926917 14.1204966500000015  5.5784121408657956
  2.1828713016926917 12.1000966500000011  9.7322121408657960
 10.6547079016926922 16.0173966500000020  4.5973517408657951
  5.5968079016926922 10.2031966500000024  0.4890517408657953
 10.7278079016926942 14.5733966500000029  2.0444517408657954
  5.5237079016926929 11.6472966500000013  3.0418517408657952
  6.4651079016926927 16.5419966500000015  0.7224517408657952
  9.7865079016926941  9.6786966500000009  4.3638517408657957
  6.3920079016926916 14.0487966500000017  3.2753517408657955
  9.8595079016926928 12.1718966500000025  1.8110517408657953
  8.3836079016926934 16.4701966500000019  3.0191517408657953
  7.8679079016926927  9.7503966500000008  2.0672517408657956
  8.4567079016926918 14.1204966500000015  0.4662517408657952
  7.7949079016926923 12.1000966500000011  4.6200517408657955
 10.5085594016926951 16.0173966500000020  9.7030479408657957
  5.4506594016926915 10.2031966500000024  5.5947479408657950
 10.5816594016926935 14.5733966500000029  7.1501479408657955
  5.3775594016926931 11.6472966500000013  8.1475479408657954
  6.3189594016926929 16.5419966500000015  5.8281479408657955
  9.6403594016926952  9.6786966500000009  9.4695479408657945
  6.2458594016926918 14.0487966500000017  8.3810479408657947
  9.7133594016926921 12.1718966500000025  6.9167479408657950
  8.2374594016926928 16.4701966500000019  8.1248479408657950
  7.7217594016926929  9.7503966500000008  7.1729479408657948
  8.3105594016926929 14.1204966500000015  5.5719479408657957
  7.6487594016926925 12.1000966500000011  9.7257479408657961
  4.8965228016926927 16.0173966500000020 14.8152083408657962
 -0.1613771983073081 10.2031966500000024 10.7069083408657928
  4.9696228016926920 14.5733966500000029 12.2623083408657951
 -0.2344771983073081 11.6472966500000013 13.2597083408657959
  0.7069228016926917 16.5419966500000015 10.9403083408657924
  4.0283228016926920  9.6786966500000009 14.5817083408657950
  0.6338228016926921 14.0487966500000017 13.4932083408657952
  4.1013228016926924 12.1718966500000025 12.0289083408657937
  2.6254228016926917 16.4701966500000019 13.2370083408657955
  2.1097228016926923  9.7503966500000008 12.2851083408657971
  2.6985228016926919 14.1204966500000015 10.6841083408657944
  2.0367228016926919 12.1000966500000011 14.8379083408657948
  4.7503743016926929 16.0173966500000020 19.9209045408657950
 -0.3075256983073081 10.2031966500000024 15.8126045408657951
  4.8234743016926922 14.5733966500000029 17.3680045408657939
 -0.3806256983073081 11.6472966500000013 18.3654045408657964
  0.5607743016926917 16.5419966500000015 16.0460045408657948
  3.8821743016926922  9.6786966500000009 19.6874045408657956
  0.4876743016926921 14.0487966500000017 18.5989045408657994
  3.9551743016926926 12.1718966500000025 17.1346045408657943
  2.4792743016926924 16.4701966500000019 18.3427045408657960
  1.9635743016926916  9.7503966500000008 17.3908045408657941
  2.5523743016926916 14.1204966500000015 15.7898045408657932
  1.8905743016926915 12.1000966500000011 19.9436045408657954
 10.3624109016926926 16.0173966500000020 14.8087441408657963
  5.3045109016926935 10.2031966500000024 10.7004441408657929
 10.4355109016926946 14.5733966500000029 12.2558441408657952
  5.2314109016926933 11.6472966500000013 13.2532441408657959
  6.1728109016926931 16.5419966500000015 10.9338441408657925
  9.4942109016926945  9.6786966500000009 14.5752441408657951
  6.0997109016926920 14.0487966500000017 13.4867441408657953
  9.5672109016926932 12.1718966500000025 12.0224441408657938
  8.0913109016926938 16.4701966500000019 13.2305441408657956
  7.5756109016926931  9.7503966500000008 12.2786441408657971
  8.1644109016926922 14.1204966500000015 10.6776441408657945
  7.5026109016926927 12.1000966500000011 14.8314441408657949
 10.2162624016926955 16.0173966500000020 19.9144403408657915
  5.1583624016926919 10.2031966500000024 15.8061403408657952
 10.2893624016926939 14.5733966500000029 17.3615403408657940
  5.0852624016926926 11.6472966500000013 18.3589403408657930
  6.0266624016926933 16.5419966500000015 16.0395403408657948
  9.3480624016926939  9.6786966500000009 19.6809403408657957
  5.9535624016926922 14.0487966500000017 18.5924403408657923
  9.4210624016926925 12.1718966500000025 17.1281403408657944
  7.9451624016926932 16.4701966500000019 18.3362403408657926
  7.4294624016926933  9.7503966500000008 17.3843403408657942
  8.0182624016926933 14.1204966500000015 15.7833403408657933
  7.3564624016926929 12.1000966500000011 19.9371403408657955
 16.1205960016926895  7.2771655500000003  4.5908875408657952
 11.0626960016926912  1.4629655500000007  0.4825875408657953
 16.1936960016926932  5.8331655500000004  2.0379875408657955
 10.9895960016926928  2.9070655500000009  3.0353875408657953
 11.9309960016926926  7.8017655500000007  0.7159875408657953
 15.2523960016926932  0.9384655500000005  4.3573875408657958
 11.8578960016926924  5.3085655500000009  3.2688875408657951
 15.3253960016926936  3.4316655500000013  1.8045875408657950
 13.8494960016926942  7.7299655500000011  3.0126875408657954
 13.3337960016926917  1.0101655500000006  2.0607875408657956
 13.9225960016926944  5.3802655500000007  0.4597875408657953
 13.2607960016926913  3.3598655500000012  4.6135875408657956
 15.9744475016926888  7.2771655500000003  9.6965837408657958
 10.9165475016926923  1.4629655500000007  5.5882837408657950
 16.0475475016926907  5.8331655500000004  7.1436837408657956
 10.8434475016926921  2.9070655500000009  8.1410837408657954
 11.7848475016926937  7.8017655500000007  5.8216837408657955
 15.1062475016926943  0.9384655500000005  9.4630837408657964
 11.7117475016926917  5.3085655500000009  8.3745837408657930
 15.1792475016926947  3.4316655500000013  6.9102837408657951
 13.7033475016926936  7.7299655500000011  8.1183837408657951
 13.1876475016926911  1.0101655500000006  7.1664837408657958
 13.7764475016926937  5.3802655500000007  5.5654837408657958
 13.1146475016926907  3.3598655500000012  9.7192837408657962
 21.5864841016926938  7.2771655500000003  4.5844233408657962
 16.5285841016926973  1.4629655500000007  0.4761233408657953
 21.6595841016926975  5.8331655500000004  2.0315233408657956
 16.4554841016926900  2.9070655500000009  3.0289233408657954
 17.3968841016926916  7.8017655500000007  0.7095233408657952
 20.7182841016926922  0.9384655500000005  4.3509233408657959
 17.3237841016926915  5.3085655500000009  3.2624233408657957
 20.7912841016926926  3.4316655500000013  1.7981233408657953
 19.3153841016926933  7.7299655500000011  3.0062233408657955
 18.7996841016926908  1.0101655500000006  2.0543233408657957
 19.3884841016926899  5.3802655500000007  0.4533233408657952
 18.7266841016926904  3.3598655500000012  4.6071233408657957
 21.4403356016926949  7.2771655500000003  9.6901195408657959
 16.3824356016926913  1.4629655500000007  5.5818195408657951
 21.5134356016926951  5.8331655500000004  7.1372195408657957