 C  H  N 
 1.0000000000000000
    15.1639999999999997    0.0000000000000000    0.0000000000000000
     0.0000000000000000   10.7420000000000009    0.0000000000000000
    -1.9045999999999994    0.0000000000000000   17.1283600000000007
 C   H   N  
  96 128  64
Cartesian
  0.3372965974257212  1.1681248680999259  1.5322665778050357
  2.5014033938232227  4.2028751114452465  7.0319134516285819
  4.8730537532905975  3.8536249075453388  2.7498237242620824
 13.1296463037973332  1.5173749109864358  5.8143562273262193
  0.9226176275260874  2.9747625049082025  2.5631100805945835
  1.9160825267672426  2.3962375366671247  6.0010697490525322
  4.2877332039952964  0.2892625727744899  1.7189798042622395
 13.7149668969400729  5.0817372310438742  6.8452000681722041
  1.6339352892790868  2.9416303183378325  1.3869744533536130
  1.2047648956051802  2.4293695111404183  7.1772053924162957
  3.5764153360884645  0.2561307578280880  2.8951157281233475
 14.4262848966743675  5.1148691937225061  5.6690642600715062
  0.3372965974257212  6.5391248680999263  1.5322665778050357
  2.5014033938232227  9.5738751114452469  7.0319134516285819
  4.8730537532905975  9.2246249075453388  2.7498237242620824
 13.1296463037973332  6.8883749109864363  5.8143562273262193
  0.9226176275260874  8.3457625049082029  2.5631100805945835
  1.9160825267672426  7.7672375366671247  6.0010697490525322
  4.2877332039952964  5.6602625727744904  1.7189798042622395
 13.7149668969400729 10.4527372310438746  6.8452000681722041
  1.6339352892790868  8.3126303183378329  1.3869744533536130
  1.2047648956051802  7.8003695111404197  7.1772053924162957
  3.5764153360884645  5.6271307578280894  2.8951157281233475
 14.4262848966743675 10.4858691937225075  5.6690642600715062
  7.9192965974257188  1.1681248680999259  1.5322665778050357
 10.0834033938232199  4.2028751114452465  7.0319134516285819
 12.4550537532905974  3.8536249075453388  2.7498237242620824
  5.5476463037973343  1.5173749109864358  5.8143562273262193
  8.5046176275260859  2.9747625049082025  2.5631100805945835
  9.4980825267672433  2.3962375366671247  6.0010697490525322
 11.8697332039952972  0.2892625727744899  1.7189798042622395
  6.1329668969400730  5.0817372310438742  6.8452000681722041
  9.2159352892790860  2.9416303183378325  1.3869744533536130
  8.7867648956051791  2.4293695111404183  7.1772053924162957
 11.1584153360884635  0.2561307578280880  2.8951157281233475
  6.8442848966743668  5.1148691937225061  5.6690642600715062
  3.1759965974257214  1.1681248680999259 10.0964465778050343
  5.3401033938232230  4.2028751114452465 15.5960934516285832
  7.7117537532905978  3.8536249075453388 11.3140037242620828
  0.8043463037973343  1.5173749109864358 14.3785362273262169
  3.7613176275260871  2.9747625049082025 11.1272900805945838
  4.7547825267672428  2.3962375366671247 14.5652497490525334
  7.1264332039952976  0.2892625727744899 10.2831598042622403
  1.3896668969400736  5.0817372310438742 15.4093800681722026
  4.4726352892790864  2.9416303183378325  9.9511544533536114
  4.0434648956051813  2.4293695111404183 15.7413853924162961
  6.4151153360884656  0.2561307578280880 11.4592957281233456
  2.1009848966743676  5.1148691937225061 14.2332442600715066
  7.9192965974257188  6.5391248680999263  1.5322665778050357
 10.0834033938232199  9.5738751114452469  7.0319134516285819
 12.4550537532905974  9.2246249075453388  2.7498237242620824
  5.5476463037973343  6.8883749109864363  5.8143562273262193
  8.5046176275260859  8.3457625049082029  2.5631100805945835
  9.4980825267672433  7.7672375366671247  6.0010697490525322
 11.8697332039952972  5.6602625727744904  1.7189798042622395
  6.1329668969400730 10.4527372310438746  6.8452000681722041
  9.2159352892790860  8.3126303183378329  1.3869744533536130
  8.7867648956051791  7.8003695111404197  7.1772053924162957
 11.1584153360884635  5.6271307578280894  2.8951157281233475
  6.8442848966743668 10.4858691937225075  5.6690642600715062
  3.1759965974257214  6.5391248680999263 10.0964465778050343
  5.3401033938232230  9.5738751114452469 15.5960934516285832
  7.7117537532905978  9.2246249075453388 11.3140037242620828
  0.8043463037973343  6.8883749109864363 14.3785362273262169
  3.7613176275260871  8.3457625049082029 11.1272900805945838
  4.7547825267672428  7.7672375366671247 14.5652497490525334
  7.1264332039952976  5.6602625727744904 10.2831598042622403
  1.3896668969400736 10.4527372310438746 15.4093800681722026
  4.4726352892790864  8.3126303183378329  9.9511544533536114
  4.0434648956051813  7.8003695111404197 15.7413853924162961
  6.4151153360884656  5.6271307578280894 11.4592957281233456
  2.1009848966743676 10.4858691937225075 14.2332442600715066
 10.7579965974257217  1.1681248680999259 10.0964465778050343
 12.9221033938232228  4.2028751114452465 15.5960934516285832
  0.1297537532905994  3.8536249075453388 11.3140037242620828
  8.3863463037973354  1.5173749109864358 14.3785362273262169
 11.3433176275260870  2.9747625049082025 11.1272900805945838
 12.3367825267672409  2.3962375366671247 14.5652497490525334
 -0.4555667960046997  0.2892625727744899 10.2831598042622403
  8.9716668969400732  5.0817372310438742 15.4093800681722026
 12.0546352892790871  2.9416303183378325  9.9511544533536114
 11.6254648956051803  2.4293695111404183 15.7413853924162961
 -1.1668846639115358  0.2561307578280880 11.4592957281233456
  9.6829848966743697  5.1148691937225061 14.2332442600715066
 10.7579965974257217  6.5391248680999263 10.0964465778050343
 12.9221033938232228  9.5738751114452469 15.5960934516285832
  0.1297537532905994  9.2246249075453388 11.3140037242620828
  8.3863463037973354  6.8883749109864363 14.3785362273262169
 11.3433176275260870  8.3457625049082029 11.1272900805945838
 12.3367825267672409  7.7672375366671247 14.5652497490525334
 -0.4555667960046997  5.6602625727744904 10.2831598042622403
  8.9716668969400732 10.4527372310438746 15.4093800681722026
 12.0546352892790871  8.3126303183378329  9.9511544533536114
 11.6254648956051803  7.8003695111404197 15.7413853924162961
 -1.1668846639115358  5.6271307578280894 11.4592957281233456
  9.6829848966743697 10.4858691937225075 14.2332442600715066
 12.0616116023733664  1.4313550891990754  8.3966030544758947
  5.9410884284246048  3.9396446184896354  0.1675769455241051
  3.5694387455858840  4.1168554278790008  4.4496669979924830
 14.4332614519783657  1.2541446247065811  4.1145130414372577
 -0.1351943998216679  0.2244522281459705  1.2850047396353097
  2.9738943284863013  5.1465477718540296  7.2791753802389163
  5.3455446843815864  2.9099521360720462  2.9970854047997881
 12.6571553313506051  2.4610476828132661  5.5670945667952401
  0.9513515745230581  3.7262515456656859  3.3427564175077995
  1.8873486522169689  1.6447485630231404  5.2214233531035878
  4.2589989437641851  1.0407513960377801  0.9393336615723636
 13.7437011437807701  4.3302483565204595  7.6248461955918811
  2.3670642034749152  3.6242820314143711  0.9758387098720624
  0.4716360648362286  1.7467176796091124  7.5883410947929910
  2.8432866859536738  0.9387823022221649  3.3062512826808903
 -0.0045863511534514  4.4322177198861352  5.2579287052689008
 12.0616116023733664  6.8023550891990761  8.3966030544758947
  5.9410884284246048  9.3106446184896363  0.1675769455241051
  3.5694387455858840  9.4878554278790013  4.4496669979924830
 14.4332614519783657  6.6251446247065813  4.1145130414372577
 -0.1351943998216679  5.5954522281459713  1.2850047396353097
  2.9738943284863013 10.5175477718540300  7.2791753802389163
  5.3455446843815864  8.2809521360720453  2.9970854047997881
 12.6571553313506051  7.8320476828132666  5.5670945667952401
  0.9513515745230581  9.0972515456656886  3.3427564175077995
  1.8873486522169689  7.0157485630231404  5.2214233531035878
  4.2589989437641851  6.4117513960377810  0.9393336615723636
 13.7437011437807701  9.7012483565204590  7.6248461955918811
  2.3670642034749152  8.9952820314143711  0.9758387098720624
  0.4716360648362286  7.1177176796091128  7.5883410947929910
  2.8432866859536738  6.3097823022221657  3.3062512826808903
 -0.0045863511534514  9.8032177198861348  5.2579287052689008
  4.4796116023733630  1.4313550891990754  8.3966030544758947
 13.5230884284246020  3.9396446184896354  0.1675769455241051
 11.1514387455858852  4.1168554278790008  4.4496669979924830
  6.8512614519783641  1.2541446247065811  4.1145130414372577
  7.4468056001783323  0.2244522281459705  1.2850047396353097
 10.5558943284863016  5.1465477718540296  7.2791753802389163
 12.9275446843815853  2.9099521360720462  2.9970854047997881
  5.0751553313506044  2.4610476828132661  5.5670945667952401
  8.5333515745230581  3.7262515456656859  3.3427564175077995
  9.4693486522169685  1.6447485630231404  5.2214233531035878
 11.8409989437641840  1.0407513960377801  0.9393336615723636
  6.1617011437807694  4.3302483565204595  7.6248461955918811
  9.9490642034749150  3.6242820314143711  0.9758387098720624
  8.0536360648362280  1.7467176796091124  7.5883410947929910
 10.4252866859536741  0.9387823022221649  3.3062512826808903
  7.5774136488465480  4.4322177198861352  5.2579287052689008
 -0.2636883976266359  1.4313550891990754 16.9607830544758968
  8.7797884284246059  3.9396446184896354  8.7317569455241060
  6.4081387455858856  4.1168554278790008 13.0138469979924825
  2.1079614519783632  1.2541446247065811 12.6786930414372581
  2.7035056001783317  0.2244522281459705  9.8491847396353105
  5.8125943284863011  5.1465477718540296 15.8433553802389167
  8.1842446843815857  2.9099521360720462 11.5612654047997889
  0.3318553313506040  2.4610476828132661 14.1312745667952395
  3.7900515745230590  3.7262515456656859 11.9069364175078007
  4.7260486522169689  1.6447485630231404 13.7856033531035891
  7.0976989437641862  1.0407513960377801  9.5035136615723648
  1.4184011437807704  4.3302483565204595 16.1890261955918824
  5.2057642034749154  3.6242820314143711  9.5400187098720615
  3.3103360648362292  1.7467176796091124 16.1525210947929914
  5.6819866859536736  0.9387823022221649 11.8704312826808902
  2.8341136488465488  4.4322177198861352 13.8221087052689029
  4.4796116023733630  6.8023550891990761  8.3966030544758947
 13.5230884284246020  9.3106446184896363  0.1675769455241051
 11.1514387455858852  9.4878554278790013  4.4496669979924830
  6.8512614519783641  6.6251446247065813  4.1145130414372577
  7.4468056001783323  5.5954522281459713  1.2850047396353097
 10.5558943284863016 10.5175477718540300  7.2791753802389163
 12.9275446843815853  8.2809521360720453  2.9970854047997881
  5.0751553313506044  7.8320476828132666  5.5670945667952401
  8.5333515745230581  9.0972515456656886  3.3427564175077995
  9.4693486522169685  7.0157485630231404  5.2214233531035878
 11.8409989437641840  6.4117513960377810  0.9393336615723636
  6.1617011437807694  9.7012483565204590  7.6248461955918811
  9.9490642034749150  8.9952820314143711  0.9758387098720624
  8.0536360648362280  7.1177176796091128  7.5883410947929910
 10.4252866859536741  6.3097823022221657  3.3062512826808903
  7.5774136488465480  9.8032177198861348  5.2579287052689008
 -0.2636883976266359  6.8023550891990761 16.9607830544758968
  8.7797884284246059  9.3106446184896363  8.7317569455241060
  6.4081387455858856  9.4878554278790013 13.0138469979924825
  2.1079614519783632  6.6251446247065813 12.6786930414372581
  2.7035056001783317  5.5954522281459713  9.8491847396353105
  5.8125943284863011 10.5175477718540300 15.8433553802389167
  8.1842446843815857  8.2809521360720453 11.5612654047997889
  0.3318553313506040  7.8320476828132666 14.1312745667952395
  3.7900515745230590  9.0972515456656886 11.9069364175078007
  4.7260486522169689  7.0157485630231404 13.7856033531035891
  7.0976989437641862  6.4117513960377810  9.5035136615723648
  1.4184011437807704  9.7012483565204590 16.1890261955918824
  5.2057642034749154  8.9952820314143711  9.5400187098720615
  3.3103360648362292  7.1177176796091128 16.1525210947929914
  5.6819866859536736  6.3097823022221657 11.8704312826808902
  2.8341136488465488  9.8032177198861348 13.8221087052689029
  7.3183116023733641  1.4313550891990754 16.9607830544758968
  1.1977884284246043  3.9396446184896354  8.7317569455241060
 -1.1738612544141134  4.1168554278790008 13.0138469979924825
  9.6899614519783643  1.2541446247065811 12.6786930414372581
 10.2855056001783325  0.2244522281459705  9.8491847396353105
 13.3945943284863009  5.1465477718540296 15.8433553802389167
  0.6022446843815884  2.9099521360720462 11.5612654047997889
  7.9138553313506028  2.4610476828132661 14.1312745667952395
 11.3720515745230575  3.7262515456656859 11.9069364175078007
 12.3080486522169696  1.6447485630231404 13.7856033531035891
 -0.4843010562358147  1.0407513960377801  9.5035136615723648
  9.0004011437807687  4.3302483565204595 16.1890261955918824
 12.7877642034749144  3.6242820314143711  9.5400187098720615
 10.8923360648362291  1.7467176796091124 16.1525210947929914
 13.2639866859536735  0.9387823022221649 11.8704312826808902
 10.4161136488465491  4.4322177198861352 13.8221087052689029
  7.3183116023733641  6.8023550891990761 16.9607830544758968
  1.1977884284246043  9.3106446184896363  8.7317569455241060
 -1.1738612544141134  9.4878554278790013 13.0138469979924825
  9.6899614519783643  6.6251446247065813 12.6786930414372581
 10.2855056001783325  5.5954522281459713  9.8491847396353105
 13.3945943284863009 10.5175477718540300 15.8433553802389167
  0.6022446843815884  8.2809521360720453 11.5612654047997889
  7.9138553313506028  7.8320476828132666 14.1312745667952395
 11.3720515745230575  9.0972515456656886 11.9069364175078007
 12.3080486522169696  7.0157485630231404 13.7856033531035891
 -0.4843010562358147  6.4117513960377810  9.5035136615723648
  9.0004011437807687  9.7012483565204590 16.1890261955918824
 12.7877642034749144  8.9952820314143711  9.5400187098720615
 10.8923360648362291  7.1177176796091128 16.1525210947929914
 13.2639866859536735  6.3097823022221657 11.8704312826808902
 10.4161136488465491  9.8032177198861348 13.8221087052689029
  1.2479451743600198  1.7882445378053251  0.7421169007052871
  1.5907549240725021  3.5827552412317356  7.8220630818459549
  3.9624053547153308  4.4737446250145672  3.5399731796813758
 14.0402948605759601  0.8972553408280844  5.0242068456315883
  0.1112119021409370  1.8596071808788384  2.6492108075825054
  2.7274881395561015  3.5113929580062724  5.9149691349337621
  5.0991385393632376  4.5451068746893846  1.6328791856343106
 12.9035614492022503  0.8258928401864982  6.9313006980615981
  1.2479451743600198  7.1592445378053267  0.7421169007052871
  1.5907549240725021  8.9537552412317361  7.8220630818459549
  3.9624053547153308  9.8447446250145667  3.5399731796813758
 14.0402948605759601  6.2682553408280848  5.0242068456315883
  0.1112119021409370  7.2306071808788390  2.6492108075825054
  2.7274881395561015  8.8823929580062728  5.9149691349337621
  5.0991385393632376  9.9161068746893850  1.6328791856343106
 12.9035614492022503  6.1968928401864991  6.9313006980615981
  8.8299451743600201  1.7882445378053251  0.7421169007052871
  9.1727549240725033  3.5827552412317356  7.8220630818459549
 11.5444053547153302  4.4737446250145672  3.5399731796813758
  6.4582948605759603  0.8972553408280844  5.0242068456315883
  7.6932119021409360  1.8596071808788384  2.6492108075825054
 10.3094881395561018  3.5113929580062724  5.9149691349337621
 12.6811385393632374  4.5451068746893846  1.6328791856343106
  5.3215614492022487  0.8258928401864982  6.9313006980615981
  4.0866451743600205  1.7882445378053251  9.3062969007052878
  4.4294549240725027  3.5827552412317356 16.3862430818459544
  6.8011053547153306  4.4737446250145672 12.1041531796813757
  1.7149948605759604  0.8972553408280844 13.5883868456315877
  2.9499119021409368  1.8596071808788384 11.2133908075825044
  5.5661881395561021  3.5113929580062724 14.4791491349337633
  7.9378385393632369  4.5451068746893846 10.1970591856343109
  0.5782614492022493  0.8258928401864982 15.4954806980615984
  8.8299451743600201  7.1592445378053267  0.7421169007052871
  9.1727549240725033  8.9537552412317361  7.8220630818459549
 11.5444053547153302  9.8447446250145667  3.5399731796813758
  6.4582948605759603  6.2682553408280848  5.0242068456315883
  7.6932119021409360  7.2306071808788390  2.6492108075825054
 10.3094881395561018  8.8823929580062728  5.9149691349337621
 12.6811385393632374  9.9161068746893850  1.6328791856343106
  5.3215614492022487  6.1968928401864991  6.9313006980615981
  4.0866451743600205  7.1592445378053267  9.3062969007052878
  4.4294549240725027  8.9537552412317361 16.3862430818459544
  6.8011053547153306  9.8447446250145667 12.1041531796813757
  1.7149948605759604  6.2682553408280848 13.5883868456315877
  2.9499119021409368  7.2306071808788390 11.2133908075825044
  5.5661881395561021  8.8823929580062728 14.4791491349337633
  7.9378385393632369  9.9161068746893850 10.1970591856343109
  0.5782614492022493  6.1968928401864991 15.4954806980615984
 11.6686451743600195  1.7882445378053251  9.3062969007052878
 12.0114549240725026  3.5827552412317356 16.3862430818459544
 -0.7808946452846679  4.4737446250145672 12.1041531796813757
  9.2969948605759605  0.8972553408280844 13.5883868456315877
 10.5319119021409371  1.8596071808788384 11.2133908075825044
 13.1481881395560993  3.5113929580062724 14.4791491349337633
  0.3558385393632386  4.5451068746893846 10.1970591856343109
  8.1602614492022489  0.8258928401864982 15.4954806980615984
 11.6686451743600195  7.1592445378053267  9.3062969007052878
 12.0114549240725026  8.9537552412317361 16.3862430818459544
 -0.7808946452846679  9.8447446250145667 12.1041531796813757
  9.2969948605759605  6.2682553408280848 13.5883868456315877
 10.5319119021409371  7.2306071808788390 11.2133908075825044
 13.1481881395560993  8.8823929580062728 14.4791491349337633
  0.3558385393632386  9.9161068746893850 10.1970591856343109
  8.1602614492022489  6.1968928401864991 15.4954806980615984
