 C  H  O 
 1.0000000000000000
    10.6600000000000001    0.0000000000000000    0.0000000000000000
     0.0000000000000000   12.0299999999999994    0.0000000000000000
     0.5930400000000002    0.0000000000000000    9.7857800000000008
 C   H   O  
  32  32  64
Cartesian
  9.0613791856397405  0.0183396675572909  4.8846636186520991
  4.5601408143602606  5.9966603324427084  0.0082263813479009
  3.3759005110403533  3.0258396952564883  2.4546719735921863
 10.2456194878523164  2.9891603036369956  2.4382180268844218
  9.0613791856397405  6.0333396675572901  4.8846636186520991
  4.5601408143602606 12.0116603324427089  0.0082263813479009
  3.3759005110403533  9.0408396952564871  2.4546719735921863
 10.2456194878523164  9.0041603036369953  2.4382180268844218
  3.7313791856397396  0.0183396675572909  4.8846636186520991
  9.8901408143602616  5.9966603324427084  0.0082263813479009
  8.7059005110403529  3.0258396952564883  2.4546719735921863
  4.9156194878523154  2.9891603036369956  2.4382180268844218
  1.3628991856397397  0.0183396675572909  9.7775536186520995
  7.5216608143602599  5.9966603324427084  4.9011163813479008
  6.3374205110403521  3.0258396952564883  7.3475619735921871
  2.5471394878523155  2.9891603036369956  7.3311080268844213
  3.7313791856397396  6.0333396675572901  4.8846636186520991
  9.8901408143602616 12.0116603324427089  0.0082263813479009
  8.7059005110403529  9.0408396952564871  2.4546719735921863
  4.9156194878523154  9.0041603036369953  2.4382180268844218
  1.3628991856397397  6.0333396675572901  9.7775536186520995
  7.5216608143602599 12.0116603324427089  4.9011163813479008
  6.3374205110403521  9.0408396952564871  7.3475619735921871
  2.5471394878523155  9.0041603036369953  7.3311080268844213
  6.6928991856397397  0.0183396675572909  9.7775536186520995
  2.1916608143602612  5.9966603324427084  4.9011163813479008
  1.0074205110403516  3.0258396952564883  7.3475619735921871
  7.8771394878523155  2.9891603036369956  7.3311080268844213
  6.6928991856397397  6.0333396675572901  9.7775536186520995
  2.1916608143602612 12.0116603324427089  4.9011163813479008
  1.0074205110403516  9.0408396952564871  7.3475619735921871
  7.8771394878523155  9.0041603036369953  7.3311080268844213
  2.3129395908774590  5.4047307199660519  0.9389520669738460
  0.6485804081293514  0.6102692792333582  3.9539379321997292
  1.8328200631178151  2.3972305321043001  1.5074933772398664
  1.1286999367344119  3.6177694668223914  3.3853966215987734
  2.3129395908774590 11.4197307199660507  0.9389520669738460
  0.6485804081293514  6.6252692792333576  3.9539379321997292
  1.8328200631178151  8.4122305321042994  1.5074933772398664
  1.1286999367344119  9.6327694668223920  3.3853966215987734
  7.6429395908774582  5.4047307199660519  0.9389520669738460
  5.9785804081293525  0.6102692792333582  3.9539379321997292
  7.1628200631178141  2.3972305321043001  1.5074933772398664
  6.4586999367344111  3.6177694668223914  3.3853966215987734
  5.2744595908774592  5.4047307199660519  5.8318420669738469
  3.6101004081293513  0.6102692792333582  8.8468279321997283
  4.7943400631178150  2.3972305321043001  6.4003833772398666
  4.0902199367344121  3.6177694668223914  8.2782866215987738
  7.6429395908774582 11.4197307199660507  0.9389520669738460
  5.9785804081293525  6.6252692792333576  3.9539379321997292
  7.1628200631178141  8.4122305321042994  1.5074933772398664
  6.4586999367344111  9.6327694668223920  3.3853966215987734
  5.2744595908774592 11.4197307199660507  5.8318420669738469
  3.6101004081293513  6.6252692792333576  8.8468279321997283
  4.7943400631178150  8.4122305321042994  6.4003833772398666
  4.0902199367344121  9.6327694668223920  8.2782866215987738
 10.6044595908774593  5.4047307199660519  5.8318420669738469
  8.9401004081293518  0.6102692792333582  8.8468279321997283
 10.1243400631178151  2.3972305321043001  6.4003833772398666
  9.4202199367344122  3.6177694668223914  8.2782866215987738
 10.6044595908774593 11.4197307199660507  5.8318420669738469
  8.9401004081293518  6.6252692792333576  8.8468279321997283
 10.1243400631178151  8.4122305321042994  6.4003833772398666
  9.4202199367344122  9.6327694668223920  8.2782866215987738
  9.6786619476108449  0.6343189266402127  4.0177514696287897
  1.2955804001254938  5.3657188296078342  0.9901025331969625
  3.9428580533704047  5.3806810716796685  0.8751385303819528
  1.6659395984844738  0.6492811706442834  3.9027874675310743
  2.7586182365315013  3.6418188961385667  3.3215838964374966
  0.2029017635706026  2.3731811004958967  1.5713061050945398
  2.8501794974052657  2.3582185857210884  1.4563432202246516
 10.7713405027456535  3.6567814157639678  3.4365467786679789
  9.6786619476108449  6.6493189266402126  4.0177514696287897
  1.2955804001254938 11.3807188296078330  0.9901025331969625
  3.9428580533704047 11.3956810716796682  0.8751385303819528
  1.6659395984844738  6.6642811706442835  3.9027874675310743
  2.7586182365315013  9.6568188961385673  3.3215838964374966
  0.2029017635706026  8.3881811004958955  1.5713061050945398
  2.8501794974052657  8.3732185857210872  1.4563432202246516
 10.7713405027456535  9.6717814157639665  3.4365467786679789
  4.3486619476108448  0.6343189266402127  4.0177514696287897
  6.6255804001254939  5.3657188296078342  0.9901025331969625
  9.2728580533704044  5.3806810716796685  0.8751385303819528
  6.9959395984844734  0.6492811706442834  3.9027874675310743
  8.0886182365315022  3.6418188961385667  3.3215838964374966
  5.5329017635706030  2.3731811004958967  1.5713061050945398
  8.1801794974052662  2.3582185857210884  1.4563432202246516
  5.4413405027456534  3.6567814157639678  3.4365467786679789
  1.9801819476108449  0.6343189266402127  8.9106414696287892
  4.2571004001254940  5.3657188296078342  5.8829925331969628
  6.9043780533704036  5.3806810716796685  5.7680285303819536
  4.6274595984844744  0.6492811706442834  8.7956774675310747
  5.7201382365315023  3.6418188961385667  8.2144738964374966
  3.1644217635706027  2.3731811004958967  6.4641961050945405
  5.8116994974052663  2.3582185857210884  6.3492332202246526
  3.0728605027456535  3.6567814157639678  8.3294367786679793
  4.3486619476108448  6.6493189266402126  4.0177514696287897
  6.6255804001254939 11.3807188296078330  0.9901025331969625
  9.2728580533704044 11.3956810716796682  0.8751385303819528
  6.9959395984844734  6.6642811706442835  3.9027874675310743
  8.0886182365315022  9.6568188961385673  3.3215838964374966
  5.5329017635706030  8.3881811004958955  1.5713061050945398
  8.1801794974052662  8.3732185857210872  1.4563432202246516
  5.4413405027456534  9.6717814157639665  3.4365467786679789
  1.9801819476108449  6.6493189266402126  8.9106414696287892
  4.2571004001254940 11.3807188296078330  5.8829925331969628
  6.9043780533704036 11.3956810716796682  5.7680285303819536
  4.6274595984844744  6.6642811706442835  8.7956774675310747
  5.7201382365315023  9.6568188961385673  8.2144738964374966
  3.1644217635706027  8.3881811004958955  6.4641961050945405
  5.8116994974052663  8.3732185857210872  6.3492332202246526
  3.0728605027456535  9.6717814157639665  8.3294367786679793
  7.3101819476108441  0.6343189266402127  8.9106414696287892
  9.5871004001254931  5.3657188296078342  5.8829925331969628
  1.5743780533704057  5.3806810716796685  5.7680285303819536
  9.9574595984844745  0.6492811706442834  8.7956774675310747
 11.0501382365315024  3.6418188961385667  8.2144738964374966
  8.4944217635706032  2.3731811004958967  6.4641961050945405
  0.4816994974052671  2.3582185857210884  6.3492332202246526
  8.4028605027456535  3.6567814157639678  8.3294367786679793
  7.3101819476108441  6.6493189266402126  8.9106414696287892
  9.5871004001254931 11.3807188296078330  5.8829925331969628
  1.5743780533704057 11.3956810716796682  5.7680285303819536
  9.9574595984844745  6.6642811706442835  8.7956774675310747
 11.0501382365315024  9.6568188961385673  8.2144738964374966
  8.4944217635706032  8.3881811004958955  6.4641961050945405
  0.4816994974052671  8.3732185857210872  6.3492332202246526
  8.4028605027456535  9.6717814157639665  8.3294367786679793
