 C  H  N  O 
 1.0000000000000000
    13.0440000000000005    0.0000000000000000    0.0000000000000000
     0.0000000000000000   18.9920000000000009    0.0000000000000000
     0.0000000000000000    0.0000000000000000   15.2560000000000002
 C   H   N   O  
 128 160  96  32
Cartesian
 12.8310749928067658  1.4637684273532248  1.2379463248716855
  6.7349284947469652  8.0322137192505068  3.1449462467462381
  0.2129182574026041  6.2117800935149301  0.6690707714694278
  6.3091026328026301  3.2842129076766540  2.5760692991491196
  1.7054795940509080  2.5068701920851240  2.0993918830855907
  4.8165097862272930  6.9891428964220346  0.1923795529720254
 11.3385197211796633  7.2548357254387978  3.6216191644931190
  8.2275152385223986  2.2411450191809394  1.7146243853465819
  2.2284364137247952  1.2615677647291106  2.5671548782216185
  4.2935706074284941  8.2344331044378496  0.6601586293774914
 10.8155799107963126  6.0095539761568784  3.1538483160892214
  8.7504446016071054  3.4864359447841902  1.2468557107838278
  1.4770889015718645  0.1512245721979937  2.3334651320457511
  5.0449120106726886  9.3447754278020074  0.4264680572682505
 11.5669058187713034  4.8992160698344129  3.3875312012624499
  7.9991028027979940  4.5967778385327147  1.4805490838821704
 12.8310749928067658  1.4637684273532248  5.0519463248716860
  6.7349284947469652  8.0322137192505068  6.9589462467462386
  0.2129182574026041  6.2117800935149301  4.4830707714694276
  6.3091026328026301  3.2842129076766540  6.3900692991491201
  1.7054795940509080  2.5068701920851240  5.9133918830855903
  4.8165097862272930  6.9891428964220346  4.0063795529720254
 11.3385197211796633  7.2548357254387978  7.4356191644931187
  8.2275152385223986  2.2411450191809394  5.5286243853465820
  2.2284364137247952  1.2615677647291106  6.3811548782216185
  4.2935706074284941  8.2344331044378496  4.4741586293774915
 10.8155799107963126  6.0095539761568784  6.9678483160892215
  8.7504446016071054  3.4864359447841902  5.0608557107838292
  1.4770889015718645  0.1512245721979937  6.1474651320457507
  5.0449120106726886  9.3447754278020074  4.2404680572682505
 11.5669058187713034  4.8992160698344129  7.2015312012624495
  7.9991028027979940  4.5967778385327147  5.2945490838821705
 12.8310749928067658  1.4637684273532248  8.8659463248716861
  6.7349284947469652  8.0322137192505068 10.7729462467462387
  0.2129182574026041  6.2117800935149301  8.2970707714694285
  6.3091026328026301  3.2842129076766540 10.2040692991491202
  1.7054795940509080  2.5068701920851240  9.7273918830855912
  4.8165097862272930  6.9891428964220346  7.8203795529720255
 11.3385197211796633  7.2548357254387978 11.2496191644931205
  8.2275152385223986  2.2411450191809394  9.3426243853465820
  2.2284364137247952  1.2615677647291106 10.1951548782216186
  4.2935706074284941  8.2344331044378496  8.2881586293774916
 10.8155799107963126  6.0095539761568784 10.7818483160892225
  8.7504446016071054  3.4864359447841902  8.8748557107838284
  1.4770889015718645  0.1512245721979937  9.9614651320457526
  5.0449120106726886  9.3447754278020074  8.0544680572682505
 11.5669058187713034  4.8992160698344129 11.0155312012624496
  7.9991028027979940  4.5967778385327147  9.1085490838821705
 12.8310749928067658  1.4637684273532248 12.6799463248716862
  6.7349284947469652  8.0322137192505068 14.5869462467462387
  0.2129182574026041  6.2117800935149301 12.1110707714694286
  6.3091026328026301  3.2842129076766540 14.0180692991491203
  1.7054795940509080  2.5068701920851240 13.5413918830855913
  4.8165097862272930  6.9891428964220346 11.6343795529720282
 11.3385197211796633  7.2548357254387978 15.0636191644931206
  8.2275152385223986  2.2411450191809394 13.1566243853465821
  2.2284364137247952  1.2615677647291106 14.0091548782216186
  4.2935706074284941  8.2344331044378496 12.1021586293774916
 10.8155799107963126  6.0095539761568784 14.5958483160892225
  8.7504446016071054  3.4864359447841902 12.6888557107838285
  1.4770889015718645  0.1512245721979937 13.7754651320457526
  5.0449120106726886  9.3447754278020074 11.8684680572682506
 11.5669058187713034  4.8992160698344129 14.8295312012624496
  7.9991028027979940  4.5967778385327147 12.9225490838821706
 12.8310749928067658 10.9597684273532252  1.2379463248716855
  6.7349284947469652 17.5282137192505090  3.1449462467462381
  0.2129182574026041 15.7077800935149305  0.6690707714694278
  6.3091026328026301 12.7802129076766544  2.5760692991491196
  1.7054795940509080 12.0028701920851244  2.0993918830855907
  4.8165097862272930 16.4851428964220332  0.1923795529720254
 11.3385197211796633 16.7508357254387974  3.6216191644931190
  8.2275152385223986 11.7371450191809394  1.7146243853465819
  2.2284364137247952 10.7575677647291101  2.5671548782216185
  4.2935706074284941 17.7304331044378500  0.6601586293774914
 10.8155799107963126 15.5055539761568770  3.1538483160892214
  8.7504446016071054 12.9824359447841911  1.2468557107838278
  1.4770889015718645  9.6472245721979935  2.3334651320457511
  5.0449120106726886 18.8407754278020079  0.4264680572682505
 11.5669058187713034 14.3952160698344152  3.3875312012624499
  7.9991028027979940 14.0927778385327134  1.4805490838821704
 12.8310749928067658 10.9597684273532252  5.0519463248716860
  6.7349284947469652 17.5282137192505090  6.9589462467462386
  0.2129182574026041 15.7077800935149305  4.4830707714694276
  6.3091026328026301 12.7802129076766544  6.3900692991491201
  1.7054795940509080 12.0028701920851244  5.9133918830855903
  4.8165097862272930 16.4851428964220332  4.0063795529720254
 11.3385197211796633 16.7508357254387974  7.4356191644931187
  8.2275152385223986 11.7371450191809394  5.5286243853465820
  2.2284364137247952 10.7575677647291101  6.3811548782216185
  4.2935706074284941 17.7304331044378500  4.4741586293774915
 10.8155799107963126 15.5055539761568770  6.9678483160892215
  8.7504446016071054 12.9824359447841911  5.0608557107838292
  1.4770889015718645  9.6472245721979935  6.1474651320457507
  5.0449120106726886 18.8407754278020079  4.2404680572682505
 11.5669058187713034 14.3952160698344152  7.2015312012624495
  7.9991028027979940 14.0927778385327134  5.2945490838821705
 12.8310749928067658 10.9597684273532252  8.8659463248716861
  6.7349284947469652 17.5282137192505090 10.7729462467462387
  0.2129182574026041 15.7077800935149305  8.2970707714694285
  6.3091026328026301 12.7802129076766544 10.2040692991491202
  1.7054795940509080 12.0028701920851244  9.7273918830855912
  4.8165097862272930 16.4851428964220332  7.8203795529720255
 11.3385197211796633 16.7508357254387974 11.2496191644931205
  8.2275152385223986 11.7371450191809394  9.3426243853465820
  2.2284364137247952 10.7575677647291101 10.1951548782216186
  4.2935706074284941 17.7304331044378500  8.2881586293774916
 10.8155799107963126 15.5055539761568770 10.7818483160892225
  8.7504446016071054 12.9824359447841911  8.8748557107838284
  1.4770889015718645  9.6472245721979935  9.9614651320457526
  5.0449120106726886 18.8407754278020079  8.0544680572682505
 11.5669058187713034 14.3952160698344152 11.0155312012624496
  7.9991028027979940 14.0927778385327134  9.1085490838821705
 12.8310749928067658 10.9597684273532252 12.6799463248716862
  6.7349284947469652 17.5282137192505090 14.5869462467462387
  0.2129182574026041 15.7077800935149305 12.1110707714694286
  6.3091026328026301 12.7802129076766544 14.0180692991491203
  1.7054795940509080 12.0028701920851244 13.5413918830855913
  4.8165097862272930 16.4851428964220332 11.6343795529720282
 11.3385197211796633 16.7508357254387974 15.0636191644931206
  8.2275152385223986 11.7371450191809394 13.1566243853465821
  2.2284364137247952 10.7575677647291101 14.0091548782216186
  4.2935706074284941 17.7304331044378500 12.1021586293774916
 10.8155799107963126 15.5055539761568770 14.5958483160892225
  8.7504446016071054 12.9824359447841911 12.6888557107838285
  1.4770889015718645  9.6472245721979935 13.7754651320457526
  5.0449120106726886 18.8407754278020079 11.8684680572682506
 11.5669058187713034 14.3952160698344152 14.8295312012624496
  7.9991028027979940 14.0927778385327134 12.9225490838821706
 12.9049762197026272  8.8515219146000081  1.3190339488434493
  6.6610334980543664  0.6444612553905291  3.2260378462320731
  0.1390237802973707  4.1035367730307222  0.5879712808472133
  6.3829856090557904  5.3924615360066355  2.4949770225432961
  2.0152151154590627  4.5367837364275996  1.9754600261588813
  4.5067774787817658  4.9592345004518679  0.0684520815748818
 11.0287760039703731  9.2847434715093744  3.7455479184251184
  8.5372542727446774  0.2112514098889722  1.8385532285460155
  3.3704891108532302  3.5789518999591707  2.6147244461877137
  3.1514962829493949  5.9170502250746351  0.7077186872883531
  9.6734966741781836  8.3269227346269297  3.1062841658424265
  9.8925433598841082  1.1690728027347734  1.1992889333876018
  3.1778449511002442  1.2215420563649935  3.0884998408842286
  3.3441598884282380  8.2744660887999313  1.1815014545595499
  9.8661704384154696  5.9695256847852072  2.6324968379259897
  9.6998595380466224  3.5264703541748346  0.7255025515100203
  1.7609525042536978  8.6403540889858377  2.6405061537112928
  4.7610688498053708  0.8556472072985717  0.7335024340089364
 11.2830757188438415  3.8923345608623876  3.0804983701306790
  8.2829468429765338  5.6036568233104100  1.1735059363077207
 12.9049762197026272  8.8515219146000081  5.1330339488434493
  6.6610334980543664  0.6444612553905291  7.0400378462320727
  0.1390237802973707  4.1035367730307222  4.4019712808472136
  6.3829856090557904  5.3924615360066355  6.3089770225432957
  2.0152151154590627  4.5367837364275996  5.7894600261588813
  4.5067774787817658  4.9592345004518679  3.8824520815748818
 11.0287760039703731  9.2847434715093744  7.5595479184251184
  8.5372542727446774  0.2112514098889722  5.6525532285460152
  3.3704891108532302  3.5789518999591707  6.4287244461877133
  3.1514962829493949  5.9170502250746351  4.5217186872883541
  9.6734966741781836  8.3269227346269297  6.9202841658424266
  9.8925433598841082  1.1690728027347734  5.0132889333876021
  3.1778449511002442  1.2215420563649935  6.9024998408842286
  3.3441598884282380  8.2744660887999313  4.9955014545595500
  9.8661704384154696  5.9695256847852072  6.4464968379259897
  9.6998595380466224  3.5264703541748346  4.5395025515100205
  1.7609525042536978  8.6403540889858377  6.4545061537112929
  4.7610688498053708  0.8556472072985717  4.5475024340089369
 11.2830757188438415  3.8923345608623876  6.8944983701306786
  8.2829468429765338  5.6036568233104100  4.9875059363077208
 12.9049762197026272  8.8515219146000081  8.9470339488434494
  6.6610334980543664  0.6444612553905291 10.8540378462320728
  0.1390237802973707  4.1035367730307222  8.2159712808472154
  6.3829856090557904  5.3924615360066355 10.1229770225432958
  2.0152151154590627  4.5367837364275996  9.6034600261588832
  4.5067774787817658  4.9592345004518679  7.6964520815748818
 11.0287760039703731  9.2847434715093744 11.3735479184251176
  8.5372542727446774  0.2112514098889722  9.4665532285460152
  3.3704891108532302  3.5789518999591707 10.2427244461877134
  3.1514962829493949  5.9170502250746351  8.3357186872883524
  9.6734966741781836  8.3269227346269297 10.7342841658424266
  9.8925433598841082  1.1690728027347734  8.8272889333876012
  3.1778449511002442  1.2215420563649935 10.7164998408842287
  3.3441598884282380  8.2744660887999313  8.8095014545595500
  9.8661704384154696  5.9695256847852072 10.2604968379259898
  9.6998595380466224  3.5264703541748346  8.3535025515100205
  1.7609525042536978  8.6403540889858377 10.2685061537112929
  4.7610688498053708  0.8556472072985717  8.3615024340089370
 11.2830757188438415  3.8923345608623876 10.7084983701306786
  8.2829468429765338  5.6036568233104100  8.8015059363077199
 12.9049762197026272  8.8515219146000081 12.7610339488434494
  6.6610334980543664  0.6444612553905291 14.6680378462320729
  0.1390237802973707  4.1035367730307222 12.0299712808472155
  6.3829856090557904  5.3924615360066355 13.9369770225432958
  2.0152151154590627  4.5367837364275996 13.4174600261588832
  4.5067774787817658  4.9592345004518679 11.5104520815748845
 11.0287760039703731  9.2847434715093744 15.1875479184251176
  8.5372542727446774  0.2112514098889722 13.2805532285460153
  3.3704891108532302  3.5789518999591707 14.0567244461877134
  3.1514962829493949  5.9170502250746351 12.1497186872883525
  9.6734966741781836  8.3269227346269297 14.5482841658424267
  9.8925433598841082  1.1690728027347734 12.6412889333876013
  3.1778449511002442  1.2215420563649935 14.5304998408842287
  3.3441598884282380  8.2744660887999313 12.6235014545595501
  9.8661704384154696  5.9695256847852072 14.0744968379259898
  9.6998595380466224  3.5264703541748346 12.1675025515100206
  1.7609525042536978  8.6403540889858377 14.0825061537112930
  4.7610688498053708  0.8556472072985717 12.1755024340089371
 11.2830757188438415  3.8923345608623876 14.5224983701306787
  8.2829468429765338  5.6036568233104100 12.6155059363077200
 12.9049762197026272 18.3475219146000086  1.3190339488434493
  6.6610334980543664 10.1404612553905302  3.2260378462320731
  0.1390237802973707 13.5995367730307226  0.5879712808472133
  6.3829856090557904 14.8884615360066341  2.4949770225432961
  2.0152151154590627 14.0327837364276000  1.9754600261588813
  4.5067774787817658 14.4552345004518692  0.0684520815748818
 11.0287760039703731 18.7807434715093748  3.7455479184251184
  8.5372542727446774  9.7072514098889719  1.8385532285460155
  3.3704891108532302 13.0749518999591707  2.6147244461877137
  3.1514962829493949 15.4130502250746328  0.7077186872883531
  9.6734966741781836 17.8229227346269283  3.1062841658424265
  9.8925433598841082 10.6650728027347732  1.1992889333876018
  3.1778449511002442 10.7175420563649944  3.0884998408842286
  3.3441598884282380 17.7704660887999317  1.1815014545595499
  9.8661704384154696 15.4655256847852094  2.6324968379259897
  9.6998595380466224 13.0224703541748354  0.7255025515100203
  1.7609525042536978 18.1363540889858399  2.6405061537112928
  4.7610688498053708 10.3516472072985728  0.7335024340089364
 11.2830757188438415 13.3883345608623880  3.0804983701306790
  8.2829468429765338 15.0996568233104096  1.1735059363077207
 12.9049762197026272 18.3475219146000086  5.1330339488434493
  6.6610334980543664 10.1404612553905302  7.0400378462320727
  0.1390237802973707 13.5995367730307226  4.4019712808472136
  6.3829856090557904 14.8884615360066341  6.3089770225432957
  2.0152151154590627 14.0327837364276000  5.7894600261588813
  4.5067774787817658 14.4552345004518692  3.8824520815748818
 11.0287760039703731 18.7807434715093748  7.5595479184251184
  8.5372542727446774  9.7072514098889719  5.6525532285460152
  3.3704891108532302 13.0749518999591707  6.4287244461877133
  3.1514962829493949 15.4130502250746328  4.5217186872883541
  9.6734966741781836 17.8229227346269283  6.9202841658424266
  9.8925433598841082 10.6650728027347732  5.0132889333876021
  3.1778449511002442 10.7175420563649944  6.9024998408842286
  3.3441598884282380 17.7704660887999317  4.9955014545595500
  9.8661704384154696 15.4655256847852094  6.4464968379259897
  9.6998595380466224 13.0224703541748354  4.5395025515100205
  1.7609525042536978 18.1363540889858399  6.4545061537112929
  4.7610688498053708 10.3516472072985728  4.5475024340089369
 11.2830757188438415 13.3883345608623880  6.8944983701306786
  8.2829468429765338 15.0996568233104096  4.9875059363077208
 12.9049762197026272 18.3475219146000086  8.9470339488434494
  6.6610334980543664 10.1404612553905302 10.8540378462320728
  0.1390237802973707 13.5995367730307226  8.2159712808472154
  6.3829856090557904 14.8884615360066341 10.1229770225432958
  2.0152151154590627 14.0327837364276000  9.6034600261588832
  4.5067774787817658 14.4552345004518692  7.6964520815748818
 11.0287760039703731 18.7807434715093748 11.3735479184251176
  8.5372542727446774  9.7072514098889719  9.4665532285460152
  3.3704891108532302 13.0749518999591707 10.2427244461877134
  3.1514962829493949 15.4130502250746328  8.3357186872883524
  9.6734966741781836 17.8229227346269283 10.7342841658424266
  9.8925433598841082 10.6650728027347732  8.8272889333876012
  3.1778449511002442 10.7175420563649944 10.7164998408842287
  3.3441598884282380 17.7704660887999317  8.8095014545595500
  9.8661704384154696 15.4655256847852094 10.2604968379259898
  9.6998595380466224 13.0224703541748354  8.3535025515100205
  1.7609525042536978 18.1363540889858399 10.2685061537112929
  4.7610688498053708 10.3516472072985728  8.3615024340089370
 11.2830757188438415 13.3883345608623880 10.7084983701306786
  8.2829468429765338 15.0996568233104096  8.8015059363077199
 12.9049762197026272 18.3475219146000086 12.7610339488434494
  6.6610334980543664 10.1404612553905302 14.6680378462320729
  0.1390237802973707 13.5995367730307226 12.0299712808472155
  6.3829856090557904 14.8884615360066341 13.9369770225432958
  2.0152151154590627 14.0327837364276000 13.4174600261588832
  4.5067774787817658 14.4552345004518692 11.5104520815748845
 11.0287760039703731 18.7807434715093748 15.1875479184251176
  8.5372542727446774  9.7072514098889719 13.2805532285460153
  3.3704891108532302 13.0749518999591707 14.0567244461877134
  3.1514962829493949 15.4130502250746328 12.1497186872883525
  9.6734966741781836 17.8229227346269283 14.5482841658424267
  9.8925433598841082 10.6650728027347732 12.6412889333876013
  3.1778449511002442 10.7175420563649944 14.5304998408842287
  3.3441598884282380 17.7704660887999317 12.6235014545595501
  9.8661704384154696 15.4655256847852094 14.0744968379259898
  9.6998595380466224 13.0224703541748354 12.1675025515100206
  1.7609525042536978 18.1363540889858399 14.0825061537112930
  4.7610688498053708 10.3516472072985728 12.1755024340089371
 11.2830757188438415 13.3883345608623880 14.5224983701306787
  8.2829468429765338 15.0996568233104096 12.6155059363077200
  0.2913710531974643  0.2438657340788947  1.6809415650116524
  6.2306445381753166  9.2521395865367246  3.5879256097132388
 12.7526503851390380  4.9918430621716769  0.2260869756437928
  6.8133625140671672  4.5041408521121697  2.1330881770413535
  0.5153695934015486  2.5876348340754451  1.4723725665391434
  6.0066191859413003  6.9083636251537266  3.3793600809092155
 12.5286235156532211  7.3356221115824178  0.4346473043116907
  7.0374048639745777  2.1603663195110863  2.3416571120158354
  2.4022973590028149  3.6382725376115683  2.2893619808731027
  4.1196744310013962  5.8577377012066840  0.3823434678656197
 10.6416691508540602  8.3862483634061569  3.4316408547389434
  8.9243513304125894  1.1097456535029904  1.5246600683014366
  0.2913710531974643  0.2438657340788947  5.4949415650116524
  6.2306445381753166  9.2521395865367246  7.4019256097132384
 12.7526503851390380  4.9918430621716769  4.0400869756437929
  6.8133625140671672  4.5041408521121697  5.9470881770413531
  0.5153695934015486  2.5876348340754451  5.2863725665391437
  6.0066191859413003  6.9083636251537266  7.1933600809092155
 12.5286235156532211  7.3356221115824178  4.2486473043116906
  7.0374048639745777  2.1603663195110863  6.1556571120158363
  2.4022973590028149  3.6382725376115683  6.1033619808731032
  4.1196744310013962  5.8577377012066840  4.1963434678656197
 10.6416691508540602  8.3862483634061569  7.2456408547389435
  8.9243513304125894  1.1097456535029904  5.3386600683014365
  0.2913710531974643  0.2438657340788947  9.3089415650116525
  6.2306445381753166  9.2521395865367246 11.2159256097132385
 12.7526503851390380  4.9918430621716769  7.8540869756437930
  6.8133625140671672  4.5041408521121697  9.7610881770413531
  0.5153695934015486  2.5876348340754451  9.1003725665391428
  6.0066191859413003  6.9083636251537266 11.0073600809092156
 12.5286235156532211  7.3356221115824178  8.0626473043116906
  7.0374048639745777  2.1603663195110863  9.9696571120158346
  2.4022973590028149  3.6382725376115683  9.9173619808731033
  4.1196744310013962  5.8577377012066840  8.0103434678656207
 10.6416691508540602  8.3862483634061569 11.0596408547389444
  8.9243513304125894  1.1097456535029904  9.1526600683014365
  0.2913710531974643  0.2438657340788947 13.1229415650116525
  6.2306445381753166  9.2521395865367246 15.0299256097132385
 12.7526503851390380  4.9918430621716769 11.6680869756437922
  6.8133625140671672  4.5041408521121697 13.5750881770413532
  0.5153695934015486  2.5876348340754451 12.9143725665391429
  6.0066191859413003  6.9083636251537266 14.8213600809092156
 12.5286235156532211  7.3356221115824178 11.8766473043116907
  7.0374048639745777  2.1603663195110863 13.7836571120158347
  2.4022973590028149  3.6382725376115683 13.7313619808731033
  4.1196744310013962  5.8577377012066840 11.8243434678656207
 10.6416691508540602  8.3862483634061569 14.8736408547389445
  8.9243513304125894  1.1097456535029904 12.9666600683014366
  0.2913710531974643  9.7398657340788937  1.6809415650116524
  6.2306445381753166 18.7481395865367233  3.5879256097132388
 12.7526503851390380 14.4878430621716774  0.2260869756437928
  6.8133625140671672 14.0001408521121711  2.1330881770413535
  0.5153695934015486 12.0836348340754451  1.4723725665391434
  6.0066191859413003 16.4043636251537279  3.3793600809092155
 12.5286235156532211 16.8316221115824192  0.4346473043116907
  7.0374048639745777 11.6563663195110863  2.3416571120158354
  2.4022973590028149 13.1342725376115688  2.2893619808731027
  4.1196744310013962 15.3537377012066845  0.3823434678656197
 10.6416691508540602 17.8822483634061555  3.4316408547389434
  8.9243513304125894 10.6057456535029910  1.5246600683014366
  0.2913710531974643  9.7398657340788937  5.4949415650116524
  6.2306445381753166 18.7481395865367233  7.4019256097132384
 12.7526503851390380 14.4878430621716774  4.0400869756437929
  6.8133625140671672 14.0001408521121711  5.9470881770413531
  0.5153695934015486 12.0836348340754451  5.2863725665391437
  6.0066191859413003 16.4043636251537279  7.1933600809092155
 12.5286235156532211 16.8316221115824192  4.2486473043116906
  7.0374048639745777 11.6563663195110863  6.1556571120158363
  2.4022973590028149 13.1342725376115688  6.1033619808731032
  4.1196744310013962 15.3537377012066845  4.1963434678656197
 10.6416691508540602 17.8822483634061555  7.2456408547389435
  8.9243513304125894 10.6057456535029910  5.3386600683014365
  0.2913710531974643  9.7398657340788937  9.3089415650116525
  6.2306445381753166 18.7481395865367233 11.2159256097132385
 12.7526503851390380 14.4878430621716774  7.8540869756437930
  6.8133625140671672 14.0001408521121711  9.7610881770413531
  0.5153695934015486 12.0836348340754451  9.1003725665391428
  6.0066191859413003 16.4043636251537279 11.0073600809092156
 12.5286235156532211 16.8316221115824192  8.0626473043116906
  7.0374048639745777 11.6563663195110863  9.9696571120158346
  2.4022973590028149 13.1342725376115688  9.9173619808731033
  4.1196744310013962 15.3537377012066845  8.0103434678656207
 10.6416691508540602 17.8822483634061555 11.0596408547389444
  8.9243513304125894 10.6057456535029910  9.1526600683014365
  0.2913710531974643  9.7398657340788937 13.1229415650116525
  6.2306445381753166 18.7481395865367233 15.0299256097132385
 12.7526503851390380 14.4878430621716774 11.6680869756437922
  6.8133625140671672 14.0001408521121711 13.5750881770413532
  0.5153695934015486 12.0836348340754451 12.9143725665391429
  6.0066191859413003 16.4043636251537279 14.8213600809092156
 12.5286235156532211 16.8316221115824192 11.8766473043116907
  7.0374048639745777 11.6563663195110863 13.7836571120158347
  2.4022973590028149 13.1342725376115688 13.7313619808731033
  4.1196744310013962 15.3537377012066845 11.8243434678656207
 10.6416691508540602 17.8822483634061555 14.8736408547389445
  8.9243513304125894 10.6057456535029910 12.9666600683014366
 11.7347780935295170  1.4866265759012389  0.6179329547064490
  7.8312370472475381  8.0093563520442288  2.5249493233872768
  1.3092268353983396  6.2346302256858142  1.2890797098952971
  5.2127771921100514  3.2613473252643090  3.1960692625485732
 11.7347780935295170  1.4866265759012389  4.4319329547064488
  7.8312370472475381  8.0093563520442288  6.3389493233872765
  1.3092268353983396  6.2346302256858142  5.1030797098952974
  5.2127771921100514  3.2613473252643090  7.0100692625485728
 11.7347780935295170  1.4866265759012389  8.2459329547064488
  7.8312370472475381  8.0093563520442288 10.1529493233872756
  1.3092268353983396  6.2346302256858142  8.9170797098952974
  5.2127771921100514  3.2613473252643090 10.8240692625485728
 11.7347780935295170  1.4866265759012389 12.0599329547064489
  7.8312370472475381  8.0093563520442288 13.9669493233872757
  1.3092268353983396  6.2346302256858142 12.7310797098952975
  5.2127771921100514  3.2613473252643090 14.6380692625485729
 11.7347780935295170 10.9826265759012394  0.6179329547064490
  7.8312370472475381 17.5053563520442310  2.5249493233872768
  1.3092268353983396 15.7306302256858146  1.2890797098952971
  5.2127771921100514 12.7573473252643090  3.1960692625485732
 11.7347780935295170 10.9826265759012394  4.4319329547064488
  7.8312370472475381 17.5053563520442310  6.3389493233872765
  1.3092268353983396 15.7306302256858146  5.1030797098952974
  5.2127771921100514 12.7573473252643090  7.0100692625485728
 11.7347780935295170 10.9826265759012394  8.2459329547064488
  7.8312370472475381 17.5053563520442310 10.1529493233872756
  1.3092268353983396 15.7306302256858146  8.9170797098952974
  5.2127771921100514 12.7573473252643090 10.8240692625485728
 11.7347780935295170 10.9826265759012394 12.0599329547064489
  7.8312370472475381 17.5053563520442310 13.9669493233872757
  1.3092268353983396 15.7306302256858146 12.7310797098952975
  5.2127771921100514 12.7573473252643090 14.6380692625485729
