 C  H  N 
 1.0000000000000000
     6.9526501999999999    0.0000000000000000    0.0000000000000000
     0.0000000000000000   13.9053003999999998    0.0000000000000000
     0.0000000000000000    0.0000000000000000   13.9053003999999998
 C   H   N  
  48  96  32
Cartesian
  2.0088625499999999  0.3190625500000001  0.3190625500000001
  0.3190625500000001  2.0088625499999999  0.3190625500000001
  5.5819625500000001  0.3190625500000001  0.3190625500000001
  0.3190625500000001  0.3190625500000001  2.0088625499999999
  0.3190625500000001  5.5819625500000001  0.3190625500000001
  0.3190625500000001  0.3190625500000001  5.5819625500000001
  2.0088625499999999  7.2717127499999998  0.3190625500000001
  0.3190625500000001  8.9615127500000007  0.3190625500000001
  5.5819625500000001  7.2717127499999998  0.3190625500000001
  0.3190625500000001  7.2717127499999998  2.0088625499999999
  0.3190625500000001 12.5346127500000009  0.3190625500000001
  0.3190625500000001  7.2717127499999998  5.5819625500000001
  2.0088625499999999  0.3190625500000001  7.2717127499999998
  0.3190625500000001  2.0088625499999999  7.2717127499999998
  5.5819625500000001  0.3190625500000001  7.2717127499999998
  0.3190625500000001  0.3190625500000001  8.9615127500000007
  0.3190625500000001  5.5819625500000001  7.2717127499999998
  0.3190625500000001  0.3190625500000001 12.5346127500000009
  5.4851876500000003  3.7953876500000003  3.7953876500000003
  3.7953876500000003  5.4851876500000003  3.7953876500000003
  2.1056374500000010  3.7953876500000003  3.7953876500000003
  3.7953876500000003  3.7953876500000003  5.4851876500000003
  3.7953876500000003  9.0582876500000005  3.7953876500000003
  3.7953876500000003  3.7953876500000003  9.0582876500000005
  2.0088625499999999  7.2717127499999998  7.2717127499999998
  0.3190625500000001  8.9615127500000007  7.2717127499999998
  5.5819625500000001  7.2717127499999998  7.2717127499999998
  0.3190625500000001  7.2717127499999998  8.9615127500000007
  0.3190625500000001 12.5346127500000009  7.2717127499999998
  0.3190625500000001  7.2717127499999998 12.5346127500000009
  5.4851876500000003 10.7480378499999993  3.7953876500000003
  3.7953876500000003 12.4378378499999993  3.7953876500000003
  2.1056374500000010 10.7480378499999993  3.7953876500000003
  3.7953876500000003 10.7480378499999993  5.4851876500000003
  3.7953876500000003  2.1056374499999984  3.7953876500000003
  3.7953876500000003 10.7480378499999993  9.0582876500000005
  5.4851876500000003  3.7953876500000003 10.7480378499999993
  3.7953876500000003  5.4851876500000003 10.7480378499999993
  2.1056374500000010  3.7953876500000003 10.7480378499999993
  3.7953876500000003  3.7953876500000003 12.4378378499999993
  3.7953876500000003  9.0582876500000005 10.7480378499999993
  3.7953876500000003  3.7953876500000003  2.1056374499999984
  5.4851876500000003 10.7480378499999993 10.7480378499999993
  3.7953876500000003 12.4378378499999993 10.7480378499999993
  2.1056374500000010 10.7480378499999993 10.7480378499999993
  3.7953876500000003 10.7480378499999993 12.4378378499999993
  3.7953876500000003  2.1056374499999984 10.7480378499999993
  3.7953876500000003 10.7480378499999993  2.1056374499999984
  2.6377625500000002  0.9571625500000002 13.5862629500000001
  6.6336127500000002  2.6377625500000002  0.9571625500000002
  4.9529625499999996  0.9571625500000002  0.9571625500000002
  6.6336127500000002  0.9571625500000002  2.6377625500000002
  0.9571625500000002  2.6377625500000002 13.5862629500000001
  0.9571625500000002 13.5862629500000001  2.6377625500000002
  1.4766625499999999  3.1572625500000000  3.1572625500000000
  3.1572625500000000  1.4766625499999999  3.1572625500000000
  0.9571625500000002  4.9529625499999996  0.9571625500000002
  2.6377625500000002 13.5862629500000001  0.9571625500000002
  0.9571625500000002  0.9571625500000002  4.9529625499999996
  3.1572625500000000  3.1572625500000000  1.4766625499999999
  2.6377625500000002  7.9098127499999995 13.5862629500000001
  6.6336127500000002  9.5904127500000005  0.9571625500000002
  4.9529625499999996  7.9098127499999995  0.9571625500000002
  6.6336127500000002  7.9098127499999995  2.6377625500000002
  0.9571625500000002  9.5904127500000005 13.5862629500000001
  0.9571625500000002  6.6336127500000002  2.6377625500000002
  1.4766625499999999 10.1099127499999994  3.1572625500000000
  3.1572625500000000  8.4293127499999994  3.1572625500000000
  0.9571625500000002 11.9056127499999995  0.9571625500000002
  2.6377625500000002  6.6336127500000002  0.9571625500000002
  0.9571625500000002  7.9098127499999995  4.9529625499999996
  3.1572625500000000 10.1099127499999994  1.4766625499999999
  2.6377625500000002  0.9571625500000002  6.6336127500000002
  6.6336127500000002  2.6377625500000002  7.9098127499999995
  4.9529625499999996  0.9571625500000002  7.9098127499999995
  6.6336127500000002  0.9571625500000002  9.5904127500000005
  0.9571625500000002  2.6377625500000002  6.6336127500000002
  0.9571625500000002 13.5862629500000001  9.5904127500000005
  1.4766625499999999  3.1572625500000000 10.1099127499999994
  3.1572625500000000  1.4766625499999999 10.1099127499999994
  0.9571625500000002  4.9529625499999996  7.9098127499999995
  2.6377625500000002 13.5862629500000001  7.9098127499999995
  0.9571625500000002  0.9571625500000002 11.9056127499999995
  3.1572625500000000  3.1572625500000000  8.4293127499999994
  6.1140876500000001  4.4334876500000000  3.1572876500000002
  3.1572876500000002  6.1140876500000001  4.4334876500000000
  1.4766374499999990  4.4334876500000000  4.4334876500000000
  3.1572876500000002  4.4334876500000000  6.1140876500000001
  4.4334876500000000  6.1140876500000001  3.1572876500000002
  4.4334876500000000  3.1572876500000002  6.1140876500000001
  4.9529876499999999  6.6335876499999999  6.6335876499999999
  6.6335876499999999  4.9529876499999999  6.6335876499999999
  4.4334876500000000  8.4292876499999991  4.4334876500000000
  6.1140876500000001  3.1572876500000002  4.4334876500000000
  4.4334876500000000  4.4334876500000000  8.4292876499999991
  6.6335876499999999  6.6335876499999999  4.9529876499999999
  2.6377625500000002  7.9098127499999995  6.6336127500000002
  6.6336127500000002  9.5904127500000005  7.9098127499999995
  4.9529625499999996  7.9098127499999995  7.9098127499999995
  6.6336127500000002  7.9098127499999995  9.5904127500000005
  0.9571625500000002  9.5904127500000005  6.6336127500000002
  0.9571625500000002  6.6336127500000002  9.5904127500000005
  1.4766625499999999 10.1099127499999994 10.1099127499999994
  3.1572625500000000  8.4293127499999994 10.1099127499999994
  0.9571625500000002 11.9056127499999995  7.9098127499999995
  2.6377625500000002  6.6336127500000002  7.9098127499999995
  0.9571625500000002  7.9098127499999995 11.9056127499999995
  3.1572625500000000 10.1099127499999994  8.4293127499999994
  6.1140876500000001 11.3861378499999990  3.1572876500000002
  3.1572876500000002 13.0667378499999991  4.4334876500000000
  1.4766374499999990 11.3861378499999990  4.4334876500000000
  3.1572876500000002 11.3861378499999990  6.1140876500000001
  4.4334876500000000 13.0667378499999991  3.1572876500000002
  4.4334876500000000 10.1099378499999997  6.1140876500000001
  4.9529876499999999 13.5862378499999998  6.6335876499999999
  6.6335876499999999 11.9056378499999997  6.6335876499999999
  4.4334876500000000  1.4766374499999997  4.4334876500000000
  6.1140876500000001 10.1099378499999997  4.4334876500000000
  4.4334876500000000 11.3861378499999990  8.4292876499999991
  6.6335876499999999 13.5862378499999998  4.9529876499999999
  6.1140876500000001  4.4334876500000000 10.1099378499999997
  3.1572876500000002  6.1140876500000001 11.3861378499999990
  1.4766374499999990  4.4334876500000000 11.3861378499999990
  3.1572876500000002  4.4334876500000000 13.0667378499999991
  4.4334876500000000  6.1140876500000001 10.1099378499999997
  4.4334876500000000  3.1572876500000002 13.0667378499999991
  4.9529876499999999  6.6335876499999999 13.5862378499999998
  6.6335876499999999  4.9529876499999999 13.5862378499999998
  4.4334876500000000  8.4292876499999991 11.3861378499999990
  6.1140876500000001  3.1572876500000002 11.3861378499999990
  4.4334876500000000  4.4334876500000000  1.4766374499999997
  6.6335876499999999  6.6335876499999999 11.9056378499999997
  6.1140876500000001 11.3861378499999990 10.1099378499999997
  3.1572876500000002 13.0667378499999991 11.3861378499999990
  1.4766374499999990 11.3861378499999990 11.3861378499999990
  3.1572876500000002 11.3861378499999990 13.0667378499999991
  4.4334876500000000 13.0667378499999991 10.1099378499999997
  4.4334876500000000 10.1099378499999997 13.0667378499999991
  4.9529876499999999 13.5862378499999998 13.5862378499999998
  6.6335876499999999 11.9056378499999997 13.5862378499999998
  4.4334876500000000  1.4766374499999997 11.3861378499999990
  6.1140876500000001 10.1099378499999997 11.3861378499999990
  4.4334876500000000 11.3861378499999990  1.4766374499999997
  6.6335876499999999 13.5862378499999998 11.9056378499999997
  1.1865625500000001  1.1865625500000001  1.1865625500000001
  2.9278625500000000 11.6155629500000011  2.9278625500000000
  2.9278625500000000  2.9278625500000000 11.6155629500000011
  4.6629127500000003  2.9278625500000000  2.9278625500000000
  1.1865625500000001  8.1392127500000004  1.1865625500000001
  2.9278625500000000  4.6629127500000003  2.9278625500000000
  2.9278625500000000  9.8805127499999994 11.6155629500000011
  4.6629127500000003  9.8805127499999994  2.9278625500000000
  1.1865625500000001  1.1865625500000001  8.1392127500000004
  2.9278625500000000 11.6155629500000011  9.8805127499999994
  2.9278625500000000  2.9278625500000000  4.6629127500000003
  4.6629127500000003  2.9278625500000000  9.8805127499999994
  4.6628876500000001  4.6628876500000001  4.6628876500000001
  6.4041876499999999  1.1865876499999999  6.4041876499999999
  6.4041876499999999  6.4041876499999999  1.1865876499999999
  1.1865876499999999  6.4041876499999999  6.4041876499999999
  1.1865625500000001  8.1392127500000004  8.1392127500000004
  2.9278625500000000  4.6629127500000003  9.8805127499999994
  2.9278625500000000  9.8805127499999994  4.6629127500000003
  4.6629127500000003  9.8805127499999994  9.8805127499999994
  4.6628876500000001 11.6155378499999991  4.6628876500000001
  6.4041876499999999  8.1392378499999989  6.4041876499999999
  6.4041876499999999 13.3568378499999998  1.1865876499999999
  1.1865876499999999 13.3568378499999998  6.4041876499999999
  4.6628876500000001  4.6628876500000001 11.6155378499999991
  6.4041876499999999  1.1865876499999999 13.3568378499999998
  6.4041876499999999  6.4041876499999999  8.1392378499999989
  1.1865876499999999  6.4041876499999999 13.3568378499999998
  4.6628876500000001 11.6155378499999991 11.6155378499999991
  6.4041876499999999  8.1392378499999989 13.3568378499999998
  6.4041876499999999 13.3568378499999998  8.1392378499999989
  1.1865876499999999 13.3568378499999998 13.3568378499999998
