 C  H 
 1.0000000000000000
    16.1692000000000000    0.0000000000000000    0.0000000000000000
     0.0000000000000000   11.8750000000000000    0.0000000000000000
    -1.7384599999999999    0.0000000000000000   14.2005999999999997
 C   H  
 160 128
Cartesian
 15.2194608472744903  0.1174351611888114  2.3443410390737185
  4.1228091480295506  5.8200648388111889  4.7559589659124732
  0.0805091452444110  3.0861851245869341  4.7559594072156477
  3.0925605713983493  2.8513148124744845  2.3443406749394278
 -0.1806904091745188  0.9767439010437980  1.5882806758097188
  3.3537603892267649  4.9607561132308833  5.5120193267836983
 15.4806600061789190  3.9454940234808697  5.5120198113140120
  3.8616096792159795  1.9920059061911533  1.5882802629075952
  0.2069345957094390  0.6324627792277107  0.2673159361106510
  2.9661353862248490  5.3050372293044452  6.8329840588409025
 15.0930358245464280  3.6012134126423092  6.8329849973454788
  4.2492338760425064  2.3362865205685259  0.2673150944486499
 12.2480518620496532  1.4989646705678470  6.5617332340269581
  7.0942181068262453  4.4385353362679094  0.5385667633189841
  3.0519176559398304  4.4677148217164966  0.5385679207340958
  0.1211520739293013  1.4697851349070858  6.5617321885045623
 12.6175657821351077  1.1313969395605241  5.2845873778338728
  6.7247042144925455  4.8061030690916580  1.8157126270413269
  2.6824032557450574  4.1001466707326513  1.8157134342921399
  0.4906664811458613  1.8373532984221319  5.2845866728460047
 15.2194608472744903  6.0549351611888111  2.3443410390737185
  4.1228091480295506 11.7575648388111880  4.7559589659124732
  0.0805091452444110  9.0236851245869332  4.7559594072156477
  3.0925605713983493  8.7888148124744845  2.3443406749394278
 -0.1806904091745188  6.9142439010437968  1.5882806758097188
  3.3537603892267649 10.8982561132308824  5.5120193267836983
 15.4806600061789190  9.8829940234808689  5.5120198113140120
  3.8616096792159795  7.9295059061911530  1.5882802629075952
  0.2069345957094390  6.5699627792277102  0.2673159361106510
  2.9661353862248490 11.2425372293044461  6.8329840588409025
 15.0930358245464280  9.5387134126423092  6.8329849973454788
  4.2492338760425064  8.2737865205685264  0.2673150944486499
 12.2480518620496532  7.4364646705678474  6.5617332340269581
  7.0942181068262453 10.3760353362679094  0.5385667633189841
  3.0519176559398304 10.4052148217164966  0.5385679207340958
  0.1211520739293013  7.4072851349070854  6.5617321885045623
 12.6175657821351077  7.0688969395605241  5.2845873778338728
  6.7247042144925455 10.7436030690916589  1.8157126270413269
  2.6824032557450574 10.0376466707326522  1.8157134342921399
  0.4906664811458613  7.7748532984221317  5.2845866728460047
  7.1348608472744903  0.1174351611888114  2.3443410390737185
 12.2074091480295515  5.8200648388111889  4.7559589659124732
  8.1651091452444113  3.0861851245869341  4.7559594072156477
 11.1771605713983497  2.8513148124744845  2.3443406749394278
  7.9039095908254815  0.9767439010437980  1.5882806758097188
 11.4383603892267658  4.9607561132308833  5.5120193267836983
  7.3960600061789181  3.9454940234808697  5.5120198113140120
 11.9462096792159791  1.9920059061911533  1.5882802629075952
  8.2915345957094395  0.6324627792277107  0.2673159361106510
 11.0507353862248490  5.3050372293044452  6.8329840588409025
  7.0084358245464262  3.6012134126423092  6.8329849973454788
 12.3338338760425046  2.3362865205685259  0.2673150944486499
  4.1634518620496515  1.4989646705678470  6.5617332340269581
 15.1788181068262453  4.4385353362679094  0.5385667633189841
 11.1365176559398282  4.4677148217164966  0.5385679207340958
  8.2057520739293004  1.4697851349070858  6.5617321885045623
  4.5329657821351059  1.1313969395605241  5.2845873778338728
 14.8093042144925437  4.8061030690916580  1.8157126270413269
 10.7670032557450579  4.1001466707326513  1.8157134342921399
  8.5752664811458619  1.8373532984221319  5.2845866728460047
  2.2233308472744895  0.1174351611888114  9.4446410390737192
  7.2958791480295506  5.8200648388111889 11.8562589659124740
  3.2535791452444109  3.0861851245869341 11.8562594072156475
  6.2656305713983489  2.8513148124744845  9.4446406749394285
  2.9923795908254811  0.9767439010437980  8.6885806758097175
  6.5268303892267650  4.9607561132308833 12.6123193267836982
  2.4845300061789168  3.9454940234808697 12.6123198113140109
  7.0346796792159791  1.9920059061911533  8.6885802629075926
  3.3800045957094391  0.6324627792277107  7.3676159361106501
  6.1392053862248499  5.3050372293044452 13.9332840588409024
  2.0969058245464272  3.6012134126423092 13.9332849973454795
  7.4223038760425064  2.3362865205685259  7.3676150944486496
 -0.7480781379503485  1.4989646705678470 13.6620332340269570
 10.2672881068262463  4.4385353362679094  7.6388667633189833
  6.2249876559398309  4.4677148217164966  7.6388679207340946
  3.2942220739293009  1.4697851349070858 13.6620321885045612
 -0.3785642178648940  1.1313969395605241 12.3848873778338717
  9.8977742144925465  4.8061030690916580  8.9160126270413240
  5.8554732557450579  4.1001466707326513  8.9160134342921396
  3.6637364811458615  1.8373532984221319 12.3848866728460045
  7.1348608472744903  6.0549351611888111  2.3443410390737185
 12.2074091480295515 11.7575648388111880  4.7559589659124732
  8.1651091452444113  9.0236851245869332  4.7559594072156477
 11.1771605713983497  8.7888148124744845  2.3443406749394278
  7.9039095908254815  6.9142439010437968  1.5882806758097188
 11.4383603892267658 10.8982561132308824  5.5120193267836983
  7.3960600061789181  9.8829940234808689  5.5120198113140120
 11.9462096792159791  7.9295059061911530  1.5882802629075952
  8.2915345957094395  6.5699627792277102  0.2673159361106510
 11.0507353862248490 11.2425372293044461  6.8329840588409025
  7.0084358245464262  9.5387134126423092  6.8329849973454788
 12.3338338760425046  8.2737865205685264  0.2673150944486499
  4.1634518620496515  7.4364646705678474  6.5617332340269581
 15.1788181068262453 10.3760353362679094  0.5385667633189841
 11.1365176559398282 10.4052148217164966  0.5385679207340958
  8.2057520739293004  7.4072851349070854  6.5617321885045623
  4.5329657821351059  7.0688969395605241  5.2845873778338728
 14.8093042144925437 10.7436030690916589  1.8157126270413269
 10.7670032557450579 10.0376466707326522  1.8157134342921399
  8.5752664811458619  7.7748532984221317  5.2845866728460047
  2.2233308472744895  6.0549351611888111  9.4446410390737192
  7.2958791480295506 11.7575648388111880 11.8562589659124740
  3.2535791452444109  9.0236851245869332 11.8562594072156475
  6.2656305713983489  8.7888148124744845  9.4446406749394285
  2.9923795908254811  6.9142439010437968  8.6885806758097175
  6.5268303892267650 10.8982561132308824 12.6123193267836982
  2.4845300061789168  9.8829940234808689 12.6123198113140109
  7.0346796792159791  7.9295059061911530  8.6885802629075926
  3.3800045957094391  6.5699627792277102  7.3676159361106501
  6.1392053862248499 11.2425372293044461 13.9332840588409024
  2.0969058245464272  9.5387134126423092 13.9332849973454795
  7.4223038760425064  8.2737865205685264  7.3676150944486496
 -0.7480781379503485  7.4364646705678474 13.6620332340269570
 10.2672881068262463 10.3760353362679094  7.6388667633189833
  6.2249876559398309 10.4052148217164966  7.6388679207340946
  3.2942220739293009  7.4072851349070854 13.6620321885045612
 -0.3785642178648940  7.0688969395605241 12.3848873778338717
  9.8977742144925465 10.7436030690916589  8.9160126270413240
  5.8554732557450579 10.0376466707326522  8.9160134342921396
  3.6637364811458615  7.7748532984221317 12.3848866728460045
 10.3079308472744877  0.1174351611888114  9.4446410390737192
 -0.7887208519704487  5.8200648388111889 11.8562589659124740
 11.3381791452444105  3.0861851245869341 11.8562594072156475
 14.3502305713983471  2.8513148124744845  9.4446406749394285
 11.0769795908254789  0.9767439010437980  8.6885806758097175
 14.6114303892267632  4.9607561132308833 12.6123193267836982
 10.5691300061789164  3.9454940234808697 12.6123198113140109
 -1.0499203207840191  1.9920059061911533  8.6885802629075926
 11.4646045957094387  0.6324627792277107  7.3676159361106501
 14.2238053862248464  5.3050372293044452 13.9332840588409024
 10.1815058245464289  3.6012134126423092 13.9332849973454795
 -0.6622961239574926  2.3362865205685259  7.3676150944486496
  7.3365218620496497  1.4989646705678470 13.6620332340269570
  2.1826881068262458  4.4385353362679094  7.6388667633189833
 14.3095876559398292  4.4677148217164966  7.6388679207340946
 11.3788220739293013  1.4697851349070858 13.6620321885045612
  7.7060357821351060  1.1313969395605241 12.3848873778338717
  1.8131742144925431  4.8061030690916580  8.9160126270413240
 13.9400732557450571  4.1001466707326513  8.9160134342921396
 11.7483364811458593  1.8373532984221319 12.3848866728460045
 10.3079308472744877  6.0549351611888111  9.4446410390737192
 -0.7887208519704487 11.7575648388111880 11.8562589659124740
 11.3381791452444105  9.0236851245869332 11.8562594072156475
 14.3502305713983471  8.7888148124744845  9.4446406749394285
 11.0769795908254789  6.9142439010437968  8.6885806758097175
 14.6114303892267632 10.8982561132308824 12.6123193267836982
 10.5691300061789164  9.8829940234808689 12.6123198113140109
 -1.0499203207840191  7.9295059061911530  8.6885802629075926
 11.4646045957094387  6.5699627792277102  7.3676159361106501
 14.2238053862248464 11.2425372293044461 13.9332840588409024
 10.1815058245464289  9.5387134126423092 13.9332849973454795
 -0.6622961239574926  8.2737865205685264  7.3676150944486496
  7.3365218620496497  7.4364646705678474 13.6620332340269570
  2.1826881068262458 10.3760353362679094  7.6388667633189833
 14.3095876559398292 10.4052148217164966  7.6388679207340946
 11.3788220739293013  7.4072851349070854 13.6620321885045612
  7.7060357821351060  7.0688969395605241 12.3848873778338717
  1.8131742144925431 10.7436030690916589  8.9160126270413240
 13.9400732557450571 10.0376466707326522  8.9160134342921396
 11.7483364811458593  7.7748532984221317 12.3848866728460045
 14.9249914069397462  0.4058848150803675  3.3532711377538678
  4.4172785665463721  5.5316151846481079  3.7470288598137040
  0.3749784588162489  3.3746349520725891  3.7470302299695870
  2.7980912514779757  2.5628650126159522  3.3532698731093471
  0.1336963638921972  1.9402249078879763  1.9888618531134792
  3.0393735794234513  3.9972751233359674  5.1114381545834267
 15.1662736082253069  4.9089750992038930  5.1114382923298383
  4.1759960900692787  1.0285248763158230  1.9888618042874255
 12.5584899133857100  2.4593144239467000  6.9723272569004022
  6.7837800172188780  3.4781856031784217  0.1279727430995977
  2.7414801611725865  5.4280639559529851  0.1279729880726437
  0.4315895932041459  0.5094359905424520  6.9723270852255643
 13.2311969666464311  1.8045419239657514  4.6831438550764455
  6.1110729988545156  4.1329580954104879  2.4171561483129822
  2.0687715317972790  4.7732922306803518  2.4171567239293497
  1.1042982161405470  1.1642077575822241  4.6831433635072042
 14.9249914069397462  6.3433848150803671  3.3532711377538678
  4.4172785665463721 11.4691151846481070  3.7470288598137040
  0.3749784588162489  9.3121349520725900  3.7470302299695870
  2.7980912514779757  8.5003650126159513  3.3532698731093471
  0.1336963638921972  7.8777249078879761  1.9888618531134792
  3.0393735794234513  9.9347751233359674  5.1114381545834267
 15.1662736082253069 10.8464750992038930  5.1114382923298383
  4.1759960900692787  6.9660248763158226  1.9888618042874255
 12.5584899133857100  8.3968144239467009  6.9723272569004022
  6.7837800172188780  9.4156856031784208  0.1279727430995977
  2.7414801611725865 11.3655639559529860  0.1279729880726437
  0.4315895932041459  6.4469359905424515  6.9723270852255643
 13.2311969666464311  7.7420419239657514  4.6831438550764455
  6.1110729988545156 10.0704580954104870  2.4171561483129822
  2.0687715317972790 10.7107922306803509  2.4171567239293497
  1.1042982161405470  7.1017077575822238  4.6831433635072042
  6.8403914069397445  0.4058848150803675  3.3532711377538678
 12.5018785665463739  5.5316151846481079  3.7470288598137040
  8.4595784588162495  3.3746349520725891  3.7470302299695870
 10.8826912514779757  2.5628650126159522  3.3532698731093471
  8.2182963638921969  1.9402249078879763  1.9888618531134792
 11.1239735794234509  3.9972751233359674  5.1114381545834267
  7.0816736082253060  4.9089750992038930  5.1114382923298383
 12.2605960900692761  1.0285248763158230  1.9888618042874255
  4.4738899133857082  2.4593144239467000  6.9723272569004022
 14.8683800172188771  3.4781856031784217  0.1279727430995977
 10.8260801611725874  5.4280639559529851  0.1279729880726437
  8.5161895932041443  0.5094359905424520  6.9723270852255643
  5.1465969666464311  1.8045419239657514  4.6831438550764455
 14.1956729988545138  4.1329580954104879  2.4171561483129822
 10.1533715317972781  4.7732922306803518  2.4171567239293497
  9.1888982161405472  1.1642077575822241  4.6831433635072042
  1.9288614069397447  0.4058848150803675 10.4535711377538671
  7.5903485665463721  5.5316151846481079 10.8473288598137039
  3.5480484588162486  3.3746349520725891 10.8473302299695842
  5.9711612514779757  2.5628650126159522 10.4535698731093483
  3.3067663638921978  1.9402249078879763  9.0891618531134775
  6.2124435794234518  3.9972751233359674 12.2117381545834256
  2.1701436082253069  4.9089750992038930 12.2117382923298354
  7.3490660900692779  1.0285248763158230  9.0891618042874249
 -0.4376400866142922  2.4593144239467000 14.0726272569004021
  9.9568500172188781  3.4781856031784217  7.2282727430995974
  5.9145501611725866  5.4280639559529851  7.2282729880726437
  3.6046595932041456  0.5094359905424520 14.0726270852255659
  0.2350669666464304  1.8045419239657514 11.7834438550764453
  9.2841429988545165  4.1329580954104879  9.5174561483129807
  5.2418415317972791  4.7732922306803518  9.5174567239293495
  4.2773682161405473  1.1642077575822241 11.7834433635072031
  6.8403914069397445  6.3433848150803671  3.3532711377538678
 12.5018785665463739 11.4691151846481070  3.7470288598137040
  8.4595784588162495  9.3121349520725900  3.7470302299695870
 10.8826912514779757  8.5003650126159513  3.3532698731093471
  8.2182963638921969  7.8777249078879761  1.9888618531134792
 11.1239735794234509  9.9347751233359674  5.1114381545834267
  7.0816736082253060 10.8464750992038930  5.1114382923298383
 12.2605960900692761  6.9660248763158226  1.9888618042874255
  4.4738899133857082  8.3968144239467009  6.9723272569004022
 14.8683800172188771  9.4156856031784208  0.1279727430995977
 10.8260801611725874 11.3655639559529860  0.1279729880726437
  8.5161895932041443  6.4469359905424515  6.9723270852255643
  5.1465969666464311  7.7420419239657514  4.6831438550764455
 14.1956729988545138 10.0704580954104870  2.4171561483129822
 10.1533715317972781 10.7107922306803509  2.4171567239293497
  9.1888982161405472  7.1017077575822238  4.6831433635072042
  1.9288614069397447  6.3433848150803671 10.4535711377538671
  7.5903485665463721 11.4691151846481070 10.8473288598137039
  3.5480484588162486  9.3121349520725900 10.8473302299695842
  5.9711612514779757  8.5003650126159513 10.4535698731093483
  3.3067663638921978  7.8777249078879761  9.0891618531134775
  6.2124435794234518  9.9347751233359674 12.2117381545834256
  2.1701436082253069 10.8464750992038930 12.2117382923298354
  7.3490660900692779  6.9660248763158226  9.0891618042874249
 -0.4376400866142922  8.3968144239467009 14.0726272569004021
  9.9568500172188781  9.4156856031784208  7.2282727430995974
  5.9145501611725866 11.3655639559529860  7.2282729880726437
  3.6046595932041456  6.4469359905424515 14.0726270852255659
  0.2350669666464304  7.7420419239657514 11.7834438550764453
  9.2841429988545165 10.0704580954104870  9.5174561483129807
  5.2418415317972791 10.7107922306803509  9.5174567239293495
  4.2773682161405473  7.1017077575822238 11.7834433635072031
 10.0134614069397418  0.4058848150803675 10.4535711377538671
 -0.4942514334536262  5.5316151846481079 10.8473288598137039
 11.6326484588162486  3.3746349520725891 10.8473302299695842
 14.0557612514779731  2.5628650126159522 10.4535698731093483
 11.3913663638921960  1.9402249078879763  9.0891618531134775
 14.2970435794234518  3.9972751233359674 12.2117381545834256
 10.2547436082253061  4.9089750992038930 12.2117382923298354
 -0.7355339099307229  1.0285248763158230  9.0891618042874249
  7.6469599133857074  2.4593144239467000 14.0726272569004021
  1.8722500172188787  3.4781856031784217  7.2282727430995974
 13.9991501611725848  5.4280639559529851  7.2282729880726437
 11.6892595932041452  0.5094359905424520 14.0726270852255659
  8.3196669666464285  1.8045419239657514 11.7834438550764453
  1.1995429988545174  4.1329580954104879  9.5174561483129807
 13.3264415317972791  4.7732922306803518  9.5174567239293495
 12.3619682161405464  1.1642077575822241 11.7834433635072031
 10.0134614069397418  6.3433848150803671 10.4535711377538671
 -0.4942514334536262 11.4691151846481070 10.8473288598137039
 11.6326484588162486  9.3121349520725900 10.8473302299695842
 14.0557612514779731  8.5003650126159513 10.4535698731093483
 11.3913663638921960  7.8777249078879761  9.0891618531134775
 14.2970435794234518  9.9347751233359674 12.2117381545834256
 10.2547436082253061 10.8464750992038930 12.2117382923298354
 -0.7355339099307229  6.9660248763158226  9.0891618042874249
  7.6469599133857074  8.3968144239467009 14.0726272569004021
  1.8722500172188787  9.4156856031784208  7.2282727430995974
 13.9991501611725848 11.3655639559529860  7.2282729880726437
 11.6892595932041452  6.4469359905424515 14.0726270852255659
  8.3196669666464285  7.7420419239657514 11.7834438550764453
  1.1995429988545174 10.0704580954104870  9.5174561483129807
 13.3264415317972791 10.7107922306803509  9.5174567239293495
 12.3619682161405464  7.1017077575822238 11.7834433635072031
