 C  H 
 1.0000000000000000
    13.2780000000000005    0.0000000000000000    0.0000000000000000
     0.0000000000000000   13.2780000000000005    0.0000000000000000
     0.0000000000000000    0.0000000000000000   17.8359999999999985
 C   H  
 160 256
Cartesian
  6.5815545476160278  6.5815570137652930  1.7790073975115870
  6.4173450605097511  1.1910898150210529  0.8910835026462587
  1.0223271893727486  1.3554685545004350  8.9135909552881341
  0.1067643357950515  5.3330243155268686  0.8910830626359831
  5.1686449355865056  1.0223300003440259  0.0044091692913999
  1.1910865176704739  0.1067683511741248  8.0269175222229627
  5.5017820343897421  5.1686454703257274  8.9135909378912608
  1.3554642116966340  5.5017841472512012  0.0044090447118644
  5.3330227689449963  6.4173460769114055  8.0269175374792621
  6.5815541119685266  6.5815571048574046  7.1389923210711279
  3.2620548523903419  3.2620573712456418  2.6799914397322442
  3.2620551020067619  3.2620571213188239  6.2380061214948617
  3.4262640311388113  4.5105899866820796  3.5679156546046840
  4.5105867669973936  3.0978459018315680  5.3500811305762399
  3.0978454273472757  2.0135243687316158  3.5679152310497866
  2.0135230277662242  3.4262681785907256  5.3500813388366106
  2.1822818170421092  4.6749686163966055  4.4634082234714496
  4.6749644188469901  4.3418298223806957  4.4545898138668605
  4.3418277035534167  1.8491456227132623  4.4634078104204518
  1.8491452277680529  2.1822844817634746  4.4545894392966989
  6.5815545476160278  6.5815570137652930 10.6970073975115856
  6.4173450605097511  1.1910898150210529  9.8090835026462582
  1.0223271893727486  1.3554685545004350 17.8315909552881351
  0.1067643357950515  5.3330243155268686  9.8090830626359828
  5.1686449355865056  1.0223300003440259  8.9224091692914005
  1.1910865176704739  0.1067683511741248 16.9449175222229620
  5.5017820343897421  5.1686454703257274 17.8315909378912600
  1.3554642116966340  5.5017841472512012  8.9224090447118645
  5.3330227689449963  6.4173460769114055 16.9449175374792631
  6.5815541119685266  6.5815571048574046 16.0569923210711281
  3.2620548523903419  3.2620573712456418 11.5979914397322439
  3.2620551020067619  3.2620571213188239 15.1560061214948618
  3.4262640311388113  4.5105899866820796 12.4859156546046819
  4.5105867669973936  3.0978459018315680 14.2680811305762383
  3.0978454273472757  2.0135243687316158 12.4859152310497858
  2.0135230277662242  3.4262681785907256 14.2680813388366090
  2.1822818170421092  4.6749686163966055 13.3814082234714515
  4.6749644188469901  4.3418298223806957 13.3725898138668597
  4.3418277035534167  1.8491456227132623 13.3814078104204519
  1.8491452277680529  2.1822844817634746 13.3725894392966982
  6.5815545476160278 13.2205570137652959  1.7790073975115870
  6.4173450605097511  7.8300898150210525  0.8910835026462587
  1.0223271893727486  7.9944685545004361  8.9135909552881341
  0.1067643357950515 11.9720243155268697  0.8910830626359831
  5.1686449355865056  7.6613300003440266  0.0044091692913999
  1.1910865176704739  6.7457683511741262  8.0269175222229627
  5.5017820343897421 11.8076454703257276  8.9135909378912608
  1.3554642116966340 12.1407841472512015  0.0044090447118644
  5.3330227689449963 13.0563460769114066  8.0269175374792621
  6.5815541119685266 13.2205571048574058  7.1389923210711279
  3.2620548523903419  9.9010573712456420  2.6799914397322442
  3.2620551020067619  9.9010571213188250  6.2380061214948617
  3.4262640311388113 11.1495899866820789  3.5679156546046840
  4.5105867669973936  9.7368459018315701  5.3500811305762399
  3.0978454273472757  8.6525243687316173  3.5679152310497866
  2.0135230277662242 10.0652681785907259  5.3500813388366106
  2.1822818170421092 11.3139686163966040  4.4634082234714496
  4.6749644188469901 10.9808298223806968  4.4545898138668605
  4.3418277035534167  8.4881456227132617  4.4634078104204518
  1.8491452277680529  8.8212844817634739  4.4545894392966989
  6.5815545476160278 13.2205570137652959 10.6970073975115856
  6.4173450605097511  7.8300898150210525  9.8090835026462582
  1.0223271893727486  7.9944685545004361 17.8315909552881351
  0.1067643357950515 11.9720243155268697  9.8090830626359828
  5.1686449355865056  7.6613300003440266  8.9224091692914005
  1.1910865176704739  6.7457683511741262 16.9449175222229620
  5.5017820343897421 11.8076454703257276 17.8315909378912600
  1.3554642116966340 12.1407841472512015  8.9224090447118645
  5.3330227689449963 13.0563460769114066 16.9449175374792631
  6.5815541119685266 13.2205571048574058 16.0569923210711281
  3.2620548523903419  9.9010573712456420 11.5979914397322439
  3.2620551020067619  9.9010571213188250 15.1560061214948618
  3.4262640311388113 11.1495899866820789 12.4859156546046819
  4.5105867669973936  9.7368459018315701 14.2680811305762383
  3.0978454273472757  8.6525243687316173 12.4859152310497858
  2.0135230277662242 10.0652681785907259 14.2680813388366090
  2.1822818170421092 11.3139686163966040 13.3814082234714515
  4.6749644188469901 10.9808298223806968 13.3725898138668597
  4.3418277035534167  8.4881456227132617 13.3814078104204519
  1.8491452277680529  8.8212844817634739 13.3725894392966982
 13.2205545476160271  6.5815570137652930  1.7790073975115870
 13.0563450605097540  1.1910898150210529  0.8910835026462587
  7.6613271893727495  1.3554685545004350  8.9135909552881341
  6.7457643357950525  5.3330243155268686  0.8910830626359831
 11.8076449355865059  1.0223300003440259  0.0044091692913999
  7.8300865176704741  0.1067683511741248  8.0269175222229627
 12.1407820343897423  5.1686454703257274  8.9135909378912608
  7.9944642116966342  5.5017841472512012  0.0044090447118644
 11.9720227689449974  6.4173460769114055  8.0269175374792621
 13.2205541119685268  6.5815571048574046  7.1389923210711279
  9.9010548523903417  3.2620573712456418  2.6799914397322442
  9.9010551020067616  3.2620571213188239  6.2380061214948617
 10.0652640311388115  4.5105899866820796  3.5679156546046840
 11.1495867669973965  3.0978459018315680  5.3500811305762399
  9.7368454273472764  2.0135243687316158  3.5679152310497866
  8.6525230277662253  3.4262681785907256  5.3500813388366106
  8.8212818170421112  4.6749686163966055  4.4634082234714496
 11.3139644188469894  4.3418298223806957  4.4545898138668605
 10.9808277035534161  1.8491456227132623  4.4634078104204518
  8.4881452277680527  2.1822844817634746  4.4545894392966989
 13.2205545476160271  6.5815570137652930 10.6970073975115856
 13.0563450605097540  1.1910898150210529  9.8090835026462582
  7.6613271893727495  1.3554685545004350 17.8315909552881351
  6.7457643357950525  5.3330243155268686  9.8090830626359828
 11.8076449355865059  1.0223300003440259  8.9224091692914005
  7.8300865176704741  0.1067683511741248 16.9449175222229620
 12.1407820343897423  5.1686454703257274 17.8315909378912600
  7.9944642116966342  5.5017841472512012  8.9224090447118645
 11.9720227689449974  6.4173460769114055 16.9449175374792631
 13.2205541119685268  6.5815571048574046 16.0569923210711281
  9.9010548523903417  3.2620573712456418 11.5979914397322439
  9.9010551020067616  3.2620571213188239 15.1560061214948618
 10.0652640311388115  4.5105899866820796 12.4859156546046819
 11.1495867669973965  3.0978459018315680 14.2680811305762383
  9.7368454273472764  2.0135243687316158 12.4859152310497858
  8.6525230277662253  3.4262681785907256 14.2680813388366090
  8.8212818170421112  4.6749686163966055 13.3814082234714515
 11.3139644188469894  4.3418298223806957 13.3725898138668597
 10.9808277035534161  1.8491456227132623 13.3814078104204519
  8.4881452277680527  2.1822844817634746 13.3725894392966982
 13.2205545476160271 13.2205570137652959  1.7790073975115870
 13.0563450605097540  7.8300898150210525  0.8910835026462587
  7.6613271893727495  7.9944685545004361  8.9135909552881341
  6.7457643357950525 11.9720243155268697  0.8910830626359831
 11.8076449355865059  7.6613300003440266  0.0044091692913999
  7.8300865176704741  6.7457683511741262  8.0269175222229627
 12.1407820343897423 11.8076454703257276  8.9135909378912608
  7.9944642116966342 12.1407841472512015  0.0044090447118644
 11.9720227689449974 13.0563460769114066  8.0269175374792621
 13.2205541119685268 13.2205571048574058  7.1389923210711279
  9.9010548523903417  9.9010573712456420  2.6799914397322442
  9.9010551020067616  9.9010571213188250  6.2380061214948617
 10.0652640311388115 11.1495899866820789  3.5679156546046840
 11.1495867669973965  9.7368459018315701  5.3500811305762399
  9.7368454273472764  8.6525243687316173  3.5679152310497866
  8.6525230277662253 10.0652681785907259  5.3500813388366106
  8.8212818170421112 11.3139686163966040  4.4634082234714496
 11.3139644188469894 10.9808298223806968  4.4545898138668605
 10.9808277035534161  8.4881456227132617  4.4634078104204518
  8.4881452277680527  8.8212844817634739  4.4545894392966989
 13.2205545476160271 13.2205570137652959 10.6970073975115856
 13.0563450605097540  7.8300898150210525  9.8090835026462582
  7.6613271893727495  7.9944685545004361 17.8315909552881351
  6.7457643357950525 11.9720243155268697  9.8090830626359828
 11.8076449355865059  7.6613300003440266  8.9224091692914005
  7.8300865176704741  6.7457683511741262 16.9449175222229620
 12.1407820343897423 11.8076454703257276 17.8315909378912600
  7.9944642116966342 12.1407841472512015  8.9224090447118645
 11.9720227689449974 13.0563460769114066 16.9449175374792631
 13.2205541119685268 13.2205571048574058 16.0569923210711281
  9.9010548523903417  9.9010573712456420 11.5979914397322439
  9.9010551020067616  9.9010571213188250 15.1560061214948618
 10.0652640311388115 11.1495899866820789 12.4859156546046819
 11.1495867669973965  9.7368459018315701 14.2680811305762383
  9.7368454273472764  8.6525243687316173 12.4859152310497858
  8.6525230277662253 10.0652681785907259 14.2680813388366090
  8.8212818170421112 11.3139686163966040 13.3814082234714515
 11.3139644188469894 10.9808298223806968 13.3725898138668597
 10.9808277035534161  8.4881456227132617 13.3814078104204519
  8.4881452277680527  8.8212844817634739 13.3725894392966982
  0.8212306138062315  0.0574428951425952  2.4349983275776239
  6.3017286322125310  2.0854473700057512  1.5270863561105399
  1.9207006864791607  1.5015298961863650  0.6168607197930914
  0.9166480894295074  2.2550307642048888  8.2834922165735279
  5.7028786739955430  6.4666712167145599  2.4349983392441650
  0.2223805075716691  4.4386667437958733  1.5270862443869293
  5.0225857127098568  1.9206998370305801  8.3011328669266131
  4.2690809060967041  0.9166532968768327  0.6345051262523326
  2.0854465284802890  0.2223824644120509  7.3909182209170456
  4.6034084068209733  5.0225841865426846  0.6168605800317749
  5.6074611436775177  4.2690832849755269  8.2834920295557897
  1.5015234342577428  4.6034141892821427  8.3011327505882946
  2.2550282193978233  5.6074607427299306  0.6345050782318411
  4.4386626756124103  6.3017316262797900  7.3909181377959872
  6.4666636696559872  0.8212309416734188  6.4829992016065878
  0.0574454523839730  5.7028837324977788  6.4829991089234431
  2.3833786264101779  3.3769433294869917  2.0240007913214315
  3.3769453814376762  4.1407305105595187  6.8939996863912256
  4.1407307857912894  3.1471715274771959  2.0240007542183664
  3.1471640127222686  2.3833835711630962  6.8939998005614056
  3.5418806457558589  5.4049476067818407  2.9319125539331363
  5.4049465463318942  2.9822318790375966  5.9860804366617444
  2.9822289340056107  1.1191669188690130  2.9319121245533020
  1.1191627894844725  3.5418821078970502  5.9860804418883147
  1.2839086871975889  4.8210298375777709  3.8421381322267876
  4.8210234197313104  5.2402001723998906  5.0758661240884866
  5.2402009180166953  1.7030845600332438  3.8421379580567367
  1.7030860214088654  1.2839141423745113  5.0758656540435174
  2.2879611010417724  5.5745306199394946  5.0935067542233803
  5.5745285223957000  4.2361537227325536  3.8244936044105633
  4.2361483893451979  0.9495836639760726  5.0935063420703433
  0.9495810277455542  2.2879607860797320  3.8244933396462342
  0.8212306138062315  0.0574428951425952 11.3529983275776232
  6.3017286322125310  2.0854473700057512 10.4450863561105418
  1.9207006864791607  1.5015298961863650  9.5348607197930910
  0.9166480894295074  2.2550307642048888 17.2014922165735271
  5.7028786739955430  6.4666712167145599 11.3529983392441647
  0.2223805075716691  4.4386667437958733 10.4450862443869283
  5.0225857127098568  1.9206998370305801 17.2191328669266142
  4.2690809060967041  0.9166532968768327  9.5525051262523313
  2.0854465284802890  0.2223824644120509 16.3089182209170431
  4.6034084068209733  5.0225841865426846  9.5348605800317738
  5.6074611436775177  4.2690832849755269 17.2014920295557872
  1.5015234342577428  4.6034141892821427 17.2191327505882938
  2.2550282193978233  5.6074607427299306  9.5525050782318406
  4.4386626756124103  6.3017316262797900 16.3089181377959846
  6.4666636696559872  0.8212309416734188 15.4009992016065898
  0.0574454523839730  5.7028837324977788 15.4009991089234433
  2.3833786264101779  3.3769433294869917 10.9420007913214317
  3.3769453814376762  4.1407305105595187 15.8119996863912249
  4.1407307857912894  3.1471715274771959 10.9420007542183662
  3.1471640127222686  2.3833835711630962 15.8119998005614075
  3.5418806457558589  5.4049476067818407 11.8499125539331356
  5.4049465463318942  2.9822318790375966 14.9040804366617436
  2.9822289340056107  1.1191669188690130 11.8499121245533008
  1.1191627894844725  3.5418821078970502 14.9040804418883148
  1.2839086871975889  4.8210298375777709 12.7601381322267873
  4.8210234197313104  5.2402001723998906 13.9938661240884841
  5.2402009180166953  1.7030845600332438 12.7601379580567347
  1.7030860214088654  1.2839141423745113 13.9938656540435176
  2.2879611010417724  5.5745306199394946 14.0115067542233795
  5.5745285223957000  4.2361537227325536 12.7424936044105621
  4.2361483893451979  0.9495836639760726 14.0115063420703425
  0.9495810277455542  2.2879607860797320 12.7424933396462343
  0.8212306138062315  6.6964428951425958  2.4349983275776239
  6.3017286322125310  8.7244473700057519  1.5270863561105399
  1.9207006864791607  8.1405298961863650  0.6168607197930914
  0.9166480894295074  8.8940307642048886  8.2834922165735279
  5.7028786739955430 13.1056712167145601  2.4349983392441650
  0.2223805075716691 11.0776667437958736  1.5270862443869293
  5.0225857127098568  8.5596998370305801  8.3011328669266131
  4.2690809060967041  7.5556532968768328  0.6345051262523326
  2.0854465284802890  6.8613824644120509  7.3909182209170456
  4.6034084068209733 11.6615841865426848  0.6168605800317749
  5.6074611436775177 10.9080832849755271  8.2834920295557897
  1.5015234342577428 11.2424141892821439  8.3011327505882946
  2.2550282193978233 12.2464607427299299  0.6345050782318411
  4.4386626756124103 12.9407316262797885  7.3909181377959872
  6.4666636696559872  7.4602309416734203  6.4829992016065878
  0.0574454523839730 12.3418837324977790  6.4829991089234431
  2.3833786264101779 10.0159433294869942  2.0240007913214315
  3.3769453814376762 10.7797305105595189  6.8939996863912256
  4.1407307857912894  9.7861715274771957  2.0240007542183664
  3.1471640127222686  9.0223835711630969  6.8939998005614056
  3.5418806457558589 12.0439476067818401  2.9319125539331363
  5.4049465463318942  9.6212318790375964  5.9860804366617444
  2.9822289340056107  7.7581669188690130  2.9319121245533020
  1.1191627894844725 10.1808821078970517  5.9860804418883147
  1.2839086871975889 11.4600298375777729  3.8421381322267876
  4.8210234197313104 11.8792001723998908  5.0758661240884866
  5.2402009180166953  8.3420845600332445  3.8421379580567367
  1.7030860214088654  7.9229141423745126  5.0758656540435174
  2.2879611010417724 12.2135306199394957  5.0935067542233803
  5.5745285223957000 10.8751537227325539  3.8244936044105633
  4.2361483893451979  7.5885836639760731  5.0935063420703433
  0.9495810277455542  8.9269607860797322  3.8244933396462342
  0.8212306138062315  6.6964428951425958 11.3529983275776232
  6.3017286322125310  8.7244473700057519 10.4450863561105418
  1.9207006864791607  8.1405298961863650  9.5348607197930910
  0.9166480894295074  8.8940307642048886 17.2014922165735271
  5.7028786739955430 13.1056712167145601 11.3529983392441647
  0.2223805075716691 11.0776667437958736 10.4450862443869283
  5.0225857127098568  8.5596998370305801 17.2191328669266142
  4.2690809060967041  7.5556532968768328  9.5525051262523313
  2.0854465284802890  6.8613824644120509 16.3089182209170431
  4.6034084068209733 11.6615841865426848  9.5348605800317738
  5.6074611436775177 10.9080832849755271 17.2014920295557872
  1.5015234342577428 11.2424141892821439 17.2191327505882938
  2.2550282193978233 12.2464607427299299  9.5525050782318406
  4.4386626756124103 12.9407316262797885 16.3089181377959846
  6.4666636696559872  7.4602309416734203 15.4009992016065898
  0.0574454523839730 12.3418837324977790 15.4009991089234433
  2.3833786264101779 10.0159433294869942 10.9420007913214317
  3.3769453814376762 10.7797305105595189 15.8119996863912249
  4.1407307857912894  9.7861715274771957 10.9420007542183662
  3.1471640127222686  9.0223835711630969 15.8119998005614075
  3.5418806457558589 12.0439476067818401 11.8499125539331356
  5.4049465463318942  9.6212318790375964 14.9040804366617436
  2.9822289340056107  7.7581669188690130 11.8499121245533008
  1.1191627894844725 10.1808821078970517 14.9040804418883148
  1.2839086871975889 11.4600298375777729 12.7601381322267873
  4.8210234197313104 11.8792001723998908 13.9938661240884841
  5.2402009180166953  8.3420845600332445 12.7601379580567347
  1.7030860214088654  7.9229141423745126 13.9938656540435176
  2.2879611010417724 12.2135306199394957 14.0115067542233795
  5.5745285223957000 10.8751537227325539 12.7424936044105621
  4.2361483893451979  7.5885836639760731 14.0115063420703425
  0.9495810277455542  8.9269607860797322 12.7424933396462343
  7.4602306138062326  0.0574428951425952  2.4349983275776239
 12.9407286322125312  2.0854473700057512  1.5270863561105399
  8.5597006864791609  1.5015298961863650  0.6168607197930914
  7.5556480894295079  2.2550307642048888  8.2834922165735279
 12.3418786739955433  6.4666712167145599  2.4349983392441650
  6.8613805075716705  4.4386667437958733  1.5270862443869293
 11.6615857127098597  1.9206998370305801  8.3011328669266131
 10.9080809060967052  0.9166532968768327  0.6345051262523326
  8.7244465284802892  0.2223824644120509  7.3909182209170456
 11.2424084068209744  5.0225841865426846  0.6168605800317749
 12.2464611436775179  4.2690832849755269  8.2834920295557897
  8.1405234342577426  4.6034141892821427  8.3011327505882946
  8.8940282193978248  5.6074607427299306  0.6345050782318411
 11.0776626756124106  6.3017316262797900  7.3909181377959872
 13.1056636696559874  0.8212309416734188  6.4829992016065878
  6.6964454523839745  5.7028837324977788  6.4829991089234431
  9.0223786264101786  3.3769433294869917  2.0240007913214315
 10.0159453814376764  4.1407305105595187  6.8939996863912256
 10.7797307857912923  3.1471715274771959  2.0240007542183664
  9.7861640127222689  2.3833835711630962  6.8939998005614056
 10.1808806457558596  5.4049476067818407  2.9319125539331363
 12.0439465463318971  2.9822318790375966  5.9860804366617444
  9.6212289340056110  1.1191669188690130  2.9319121245533020
  7.7581627894844729  3.5418821078970502  5.9860804418883147
  7.9229086871975891  4.8210298375777709  3.8421381322267876
 11.4600234197313124  5.2402001723998906  5.0758661240884866
 11.8792009180166982  1.7030845600332438  3.8421379580567367
  8.3420860214088659  1.2839141423745113  5.0758656540435174
  8.9269611010417727  5.5745306199394946  5.0935067542233803
 12.2135285223957002  4.2361537227325536  3.8244936044105633
 10.8751483893452008  0.9495836639760726  5.0935063420703433
  7.5885810277455548  2.2879607860797320  3.8244933396462342
  7.4602306138062326  0.0574428951425952 11.3529983275776232
 12.9407286322125312  2.0854473700057512 10.4450863561105418
  8.5597006864791609  1.5015298961863650  9.5348607197930910
  7.5556480894295079  2.2550307642048888 17.2014922165735271
 12.3418786739955433  6.4666712167145599 11.3529983392441647
  6.8613805075716705  4.4386667437958733 10.4450862443869283
 11.6615857127098597  1.9206998370305801 17.2191328669266142
 10.9080809060967052  0.9166532968768327  9.5525051262523313
  8.7244465284802892  0.2223824644120509 16.3089182209170431
 11.2424084068209744  5.0225841865426846  9.5348605800317738
 12.2464611436775179  4.2690832849755269 17.2014920295557872
  8.1405234342577426  4.6034141892821427 17.2191327505882938
  8.8940282193978248  5.6074607427299306  9.5525050782318406
 11.0776626756124106  6.3017316262797900 16.3089181377959846
 13.1056636696559874  0.8212309416734188 15.4009992016065898
  6.6964454523839745  5.7028837324977788 15.4009991089234433
  9.0223786264101786  3.3769433294869917 10.9420007913214317
 10.0159453814376764  4.1407305105595187 15.8119996863912249
 10.7797307857912923  3.1471715274771959 10.9420007542183662
  9.7861640127222689  2.3833835711630962 15.8119998005614075
 10.1808806457558596  5.4049476067818407 11.8499125539331356
 12.0439465463318971  2.9822318790375966 14.9040804366617436
  9.6212289340056110  1.1191669188690130 11.8499121245533008
  7.7581627894844729  3.5418821078970502 14.9040804418883148
  7.9229086871975891  4.8210298375777709 12.7601381322267873
 11.4600234197313124  5.2402001723998906 13.9938661240884841
 11.8792009180166982  1.7030845600332438 12.7601379580567347
  8.3420860214088659  1.2839141423745113 13.9938656540435176
  8.9269611010417727  5.5745306199394946 14.0115067542233795
 12.2135285223957002  4.2361537227325536 12.7424936044105621
 10.8751483893452008  0.9495836639760726 14.0115063420703425
  7.5885810277455548  2.2879607860797320 12.7424933396462343
  7.4602306138062326  6.6964428951425958  2.4349983275776239
 12.9407286322125312  8.7244473700057519  1.5270863561105399
  8.5597006864791609  8.1405298961863650  0.6168607197930914
  7.5556480894295079  8.8940307642048886  8.2834922165735279
 12.3418786739955433 13.1056712167145601  2.4349983392441650
  6.8613805075716705 11.0776667437958736  1.5270862443869293
 11.6615857127098597  8.5596998370305801  8.3011328669266131
 10.9080809060967052  7.5556532968768328  0.6345051262523326
  8.7244465284802892  6.8613824644120509  7.3909182209170456
 11.2424084068209744 11.6615841865426848  0.6168605800317749
 12.2464611436775179 10.9080832849755271  8.2834920295557897
  8.1405234342577426 11.2424141892821439  8.3011327505882946
  8.8940282193978248 12.2464607427299299  0.6345050782318411
 11.0776626756124106 12.9407316262797885  7.3909181377959872
 13.1056636696559874  7.4602309416734203  6.4829992016065878
  6.6964454523839745 12.3418837324977790  6.4829991089234431
  9.0223786264101786 10.0159433294869942  2.0240007913214315
 10.0159453814376764 10.7797305105595189  6.8939996863912256
 10.7797307857912923  9.7861715274771957  2.0240007542183664
  9.7861640127222689  9.0223835711630969  6.8939998005614056
 10.1808806457558596 12.0439476067818401  2.9319125539331363
 12.0439465463318971  9.6212318790375964  5.9860804366617444
  9.6212289340056110  7.7581669188690130  2.9319121245533020
  7.7581627894844729 10.1808821078970517  5.9860804418883147
  7.9229086871975891 11.4600298375777729  3.8421381322267876
 11.4600234197313124 11.8792001723998908  5.0758661240884866
 11.8792009180166982  8.3420845600332445  3.8421379580567367
  8.3420860214088659  7.9229141423745126  5.0758656540435174
  8.9269611010417727 12.2135306199394957  5.0935067542233803
 12.2135285223957002 10.8751537227325539  3.8244936044105633
 10.8751483893452008  7.5885836639760731  5.0935063420703433
  7.5885810277455548  8.9269607860797322  3.8244933396462342
  7.4602306138062326  6.6964428951425958 11.3529983275776232
 12.9407286322125312  8.7244473700057519 10.4450863561105418
  8.5597006864791609  8.1405298961863650  9.5348607197930910
  7.5556480894295079  8.8940307642048886 17.2014922165735271
 12.3418786739955433 13.1056712167145601 11.3529983392441647
  6.8613805075716705 11.0776667437958736 10.4450862443869283
 11.6615857127098597  8.5596998370305801 17.2191328669266142
 10.9080809060967052  7.5556532968768328  9.5525051262523313
  8.7244465284802892  6.8613824644120509 16.3089182209170431
 11.2424084068209744 11.6615841865426848  9.5348605800317738
 12.2464611436775179 10.9080832849755271 17.2014920295557872
  8.1405234342577426 11.2424141892821439 17.2191327505882938
  8.8940282193978248 12.2464607427299299  9.5525050782318406
 11.0776626756124106 12.9407316262797885 16.3089181377959846
 13.1056636696559874  7.4602309416734203 15.4009992016065898
  6.6964454523839745 12.3418837324977790 15.4009991089234433
  9.0223786264101786 10.0159433294869942 10.9420007913214317
 10.0159453814376764 10.7797305105595189 15.8119996863912249
 10.7797307857912923  9.7861715274771957 10.9420007542183662
  9.7861640127222689  9.0223835711630969 15.8119998005614075
 10.1808806457558596 12.0439476067818401 11.8499125539331356
 12.0439465463318971  9.6212318790375964 14.9040804366617436
  9.6212289340056110  7.7581669188690130 11.8499121245533008
  7.7581627894844729 10.1808821078970517 14.9040804418883148
  7.9229086871975891 11.4600298375777729 12.7601381322267873
 11.4600234197313124 11.8792001723998908 13.9938661240884841
 11.8792009180166982  8.3420845600332445 12.7601379580567347
  8.3420860214088659  7.9229141423745126 13.9938656540435176
  8.9269611010417727 12.2135306199394957 14.0115067542233795
 12.2135285223957002 10.8751537227325539 12.7424936044105621
 10.8751483893452008  7.5885836639760731 14.0115063420703425
  7.5885810277455548  8.9269607860797322 12.7424933396462343
