 C  H  N 
 1.0000000000000000
     9.3249999999999993    0.0000000000000000    0.0000000000000000
     0.0000000000000000   11.6999999999999993    0.0000000000000000
     0.0000000000000000    0.0000000000000000   14.9320000000000004
 C   H   N  
  64  64  32
Cartesian
  0.6983653813568825  1.0433782621188270  0.4625487183059668
  0.6983273499961805  4.8066104445591442  3.2704187575995594
  8.6266726500038189  1.0433577872078315  0.4625786531990122
  8.6266367909183028  4.8066494766730177  3.2704730219468687
  5.3608700023445079  1.8816537134303568  2.3290354127715411
  3.9642318800864391  1.8816254543111295  2.3290967455678455
  3.9641691678002946  3.9683566369504026  1.4039609034364091
  5.3608181614345725  3.9683933441513997  1.4038985553630896
  0.6983653813568825  1.0433782621188270  4.1955487183059672
  0.6983273499961805  4.8066104445591442  7.0034187575995608
  8.6266726500038189  1.0433577872078315  4.1955786531990125
  8.6266367909183028  4.8066494766730177  7.0034730219468688
  5.3608700023445079  1.8816537134303568  6.0620354127715412
  3.9642318800864391  1.8816254543111295  6.0620967455678461
  3.9641691678002946  3.9683566369504026  5.1369609034364094
  5.3608181614345725  3.9683933441513997  5.1368985553630901
  0.6983653813568825  1.0433782621188270  7.9285487183059669
  0.6983273499961805  4.8066104445591442 10.7364187575995604
  8.6266726500038189  1.0433577872078315  7.9285786531990130
  8.6266367909183028  4.8066494766730177 10.7364730219468676
  5.3608700023445079  1.8816537134303568  9.7950354127715400
  3.9642318800864391  1.8816254543111295  9.7950967455678448
  3.9641691678002946  3.9683566369504026  8.8699609034364091
  5.3608181614345725  3.9683933441513997  8.8698985553630898
  0.6983653813568825  1.0433782621188270 11.6615487183059674
  0.6983273499961805  4.8066104445591442 14.4694187575995592
  8.6266726500038189  1.0433577872078315 11.6615786531990135
  8.6266367909183028  4.8066494766730177 14.4694730219468681
  5.3608700023445079  1.8816537134303568 13.5280354127715405
  3.9642318800864391  1.8816254543111295 13.5280967455678471
  3.9641691678002946  3.9683566369504026 12.6029609034364114
  5.3608181614345725  3.9683933441513997 12.6028985553630921
  0.6983653813568825  6.8933782621188255  0.4625487183059668
  0.6983273499961805 10.6566104445591439  3.2704187575995594
  8.6266726500038189  6.8933577872078313  0.4625786531990122
  8.6266367909183028 10.6566494766730173  3.2704730219468687
  5.3608700023445079  7.7316537134303562  2.3290354127715411
  3.9642318800864391  7.7316254543111294  2.3290967455678455
  3.9641691678002946  9.8183566369504032  1.4039609034364091
  5.3608181614345725  9.8183933441513993  1.4038985553630896
  0.6983653813568825  6.8933782621188255  4.1955487183059672
  0.6983273499961805 10.6566104445591439  7.0034187575995608
  8.6266726500038189  6.8933577872078313  4.1955786531990125
  8.6266367909183028 10.6566494766730173  7.0034730219468688
  5.3608700023445079  7.7316537134303562  6.0620354127715412
  3.9642318800864391  7.7316254543111294  6.0620967455678461
  3.9641691678002946  9.8183566369504032  5.1369609034364094
  5.3608181614345725  9.8183933441513993  5.1368985553630901
  0.6983653813568825  6.8933782621188255  7.9285487183059669
  0.6983273499961805 10.6566104445591439 10.7364187575995604
  8.6266726500038189  6.8933577872078313  7.9285786531990130
  8.6266367909183028 10.6566494766730173 10.7364730219468676
  5.3608700023445079  7.7316537134303562  9.7950354127715400
  3.9642318800864391  7.7316254543111294  9.7950967455678448
  3.9641691678002946  9.8183566369504032  8.8699609034364091
  5.3608181614345725  9.8183933441513993  8.8698985553630898
  0.6983653813568825  6.8933782621188255 11.6615487183059674
  0.6983273499961805 10.6566104445591439 14.4694187575995592
  8.6266726500038189  6.8933577872078313 11.6615786531990135
  8.6266367909183028 10.6566494766730173 14.4694730219468681
  5.3608700023445079  7.7316537134303562 13.5280354127715405
  3.9642318800864391  7.7316254543111294 13.5280967455678471
  3.9641691678002946  9.8183566369504032 12.6029609034364114
  5.3608181614345725  9.8183933441513993 12.6028985553630921
  1.2665266773346040  1.8930748621329865  0.8508565762886566
  1.2664592445261122  3.9569126778381793  2.8820773852748052
  8.0585288902576320  1.8930904963700665  0.8509473098995921
  8.0584549254052149  3.9569058867945732  2.8821608043238380
  5.9291743962109678  1.0319607981829317  2.7173398470421777
  3.3961626509432397  1.0319118046266731  2.7174865471966010
  3.3958684858620436  4.8180576640481938  1.0156645852542390
  5.9288877037872130  4.8180986634315506  1.0155205233839879
  1.2665266773346040  1.8930748621329865  4.5838565762886567
  1.2664592445261122  3.9569126778381793  6.6150773852748053
  8.0585288902576320  1.8930904963700665  4.5839473098995933
  8.0584549254052149  3.9569058867945732  6.6151608043238372
  5.9291743962109678  1.0319607981829317  6.4503398470421791
  3.3961626509432397  1.0319118046266731  6.4504865471966015
  3.3958684858620436  4.8180576640481938  4.7486645852542404
  5.9288877037872130  4.8180986634315506  4.7485205233839878
  1.2665266773346040  1.8930748621329865  8.3168565762886590
  1.2664592445261122  3.9569126778381793 10.3480773852748076
  8.0585288902576320  1.8930904963700665  8.3169473098995947
  8.0584549254052149  3.9569058867945732 10.3481608043238378
  5.9291743962109678  1.0319607981829317 10.1833398470421788
  3.3961626509432397  1.0319118046266731 10.1834865471966012
  3.3958684858620436  4.8180576640481938  8.4816645852542401
  5.9288877037872130  4.8180986634315506  8.4815205233839883
  1.2665266773346040  1.8930748621329865 12.0498565762886578
  1.2664592445261122  3.9569126778381793 14.0810773852748063
  8.0585288902576320  1.8930904963700665 12.0499473098995917
  8.0584549254052149  3.9569058867945732 14.0811608043238383
  5.9291743962109678  1.0319607981829317 13.9163398470421775
  3.3961626509432397  1.0319118046266731 13.9164865471966035
  3.3958684858620436  4.8180576640481938 12.2146645852542388
  5.9288877037872130  4.8180986634315506 12.2145205233839889
  1.2665266773346040  7.7430748621329855  0.8508565762886566
  1.2664592445261122  9.8069126778381790  2.8820773852748052
  8.0585288902576320  7.7430904963700664  0.8509473098995921
  8.0584549254052149  9.8069058867945742  2.8821608043238380
  5.9291743962109678  6.8819607981829316  2.7173398470421777
  3.3961626509432397  6.8819118046266716  2.7174865471966010
  3.3958684858620436 10.6680576640481934  1.0156645852542390
  5.9288877037872130 10.6680986634315502  1.0155205233839879
  1.2665266773346040  7.7430748621329855  4.5838565762886567
  1.2664592445261122  9.8069126778381790  6.6150773852748053
  8.0585288902576320  7.7430904963700664  4.5839473098995933
  8.0584549254052149  9.8069058867945742  6.6151608043238372
  5.9291743962109678  6.8819607981829316  6.4503398470421791
  3.3961626509432397  6.8819118046266716  6.4504865471966015
  3.3958684858620436 10.6680576640481934  4.7486645852542404
  5.9288877037872130 10.6680986634315502  4.7485205233839878
  1.2665266773346040  7.7430748621329855  8.3168565762886590
  1.2664592445261122  9.8069126778381790 10.3480773852748076
  8.0585288902576320  7.7430904963700664  8.3169473098995947
  8.0584549254052149  9.8069058867945742 10.3481608043238378
  5.9291743962109678  6.8819607981829316 10.1833398470421788
  3.3961626509432397  6.8819118046266716 10.1834865471966012
  3.3958684858620436 10.6680576640481934  8.4816645852542401
  5.9288877037872130 10.6680986634315502  8.4815205233839883
  1.2665266773346040  7.7430748621329855 12.0498565762886578
  1.2664592445261122  9.8069126778381790 14.0810773852748063
  8.0585288902576320  7.7430904963700664 12.0499473098995917
  8.0584549254052149  9.8069058867945742 14.0811608043238383
  5.9291743962109678  6.8819607981829316 13.9163398470421775
  3.3961626509432397  6.8819118046266716 13.9164865471966035
  3.3958684858620436 10.6680576640481934 12.2146645852542388
  5.9288877037872130 10.6680986634315502 12.2145205233839889
  1.4049906405641339  5.8499804062454119  3.7329777238983155
  7.9200142422399615  0.0000195937545868  0.0000222761016847
  6.0675325800736566  2.9250900553467698  1.8664431325726585
  3.2575149117682254  2.9249243071224620  1.8665529396871328
  1.4049906405641339  5.8499804062454119  7.4659777238983160
  7.9200142422399615  0.0000195937545868  3.7330222761016847
  6.0675325800736566  2.9250900553467698  5.5994431325726595
  3.2575149117682254  2.9249243071224620  5.5995529396871326
  1.4049906405641339  5.8499804062454119 11.1989777238983166
  7.9200142422399615  0.0000195937545868  7.4660222761016861
  6.0675325800736566  2.9250900553467698  9.3324431325726582
  3.2575149117682254  2.9249243071224620  9.3325529396871332
  1.4049906405641339  5.8499804062454119 -0.0000222761016837
  7.9200142422399615  0.0000195937545868 11.1990222761016849
  6.0675325800736566  2.9250900553467698 13.0654431325726605
  3.2575149117682254  2.9249243071224620 13.0655529396871337
  1.4049906405641339 -0.0000195937545861  3.7329777238983155
  7.9200142422399615  5.8500195937545865  0.0000222761016847
  6.0675325800736566  8.7750900553467694  1.8664431325726585
  3.2575149117682254  8.7749243071224612  1.8665529396871328
  1.4049906405641339 -0.0000195937545861  7.4659777238983160
  7.9200142422399615  5.8500195937545865  3.7330222761016847
  6.0675325800736566  8.7750900553467694  5.5994431325726595
  3.2575149117682254  8.7749243071224612  5.5995529396871326
  1.4049906405641339 -0.0000195937545861 11.1989777238983166
  7.9200142422399615  5.8500195937545865  7.4660222761016861
  6.0675325800736566  8.7750900553467694  9.3324431325726582
  3.2575149117682254  8.7749243071224612  9.3325529396871332
  1.4049906405641339 -0.0000195937545861 -0.0000222761016837
  7.9200142422399615  5.8500195937545865 11.1990222761016849
  6.0675325800736566  8.7750900553467694 13.0654431325726605
  3.2575149117682254  8.7749243071224612 13.0655529396871337
