 C  N  O  H 
 1.0000000000000000
    15.4298931176488701    0.2643606085740032   -0.2434348573931360
     3.5338126900198761   13.7112925714571272   -0.0705410366378129
    -4.1293341063732045   -2.2362717597645938   14.1175168830214961
 C   N   O   H  
  72  24  48 168
Selective dynamics
Cartesian
  4.9894646381805829  5.2017686666476006  2.5338222983463936   T   T   T
 10.1327623440635826  5.2898888695055790  2.4526773458820186   T   T   T
 15.2760600499465671  5.3780090723635965  2.3715323934176360   T   T   T
  6.7563709831905303 12.0574149523761758  2.4985517800274897   T   T   T
 11.8996686890734722 12.1455351552341551  2.4174068275631155   T   T   T
 17.0429663949563128 12.2336553580921503  2.3362618750987383   T   T   T
  2.9247975849940113  4.0836327867653113  9.5925807398571017   T   T   T
  8.0680952908769132  4.1717529896233163  9.5114357873927311   T   T   T
 13.2113929967599582  4.2598731924813045  9.4302908349283356   T   T   T
  4.6917039300039187 10.9392790724938749  9.5573102215381720   T   T   T
  9.8350016358868722 11.0273992753518790  9.4761652690738192   T   T   T
 14.9782993417698638 11.1155194782098619  9.3950203166094131   T   T   T
 -0.1439276404743013  0.6238619420566717  4.4085206723810435   T   T   T
  4.9993700654086535  0.7119821449146766  4.3273757199166605   T   T   T
 10.1426677712915598  0.8001023477726760  4.2462307674522899   T   T   T
  1.6229787045356359  7.4795082277852423  4.3732501540621476   T   T   T
  6.7662764104186115  7.5676284306432331  4.2921052015977734   T   T   T
 11.9095741163014903  7.6557486335012266  4.2109602491333904   T   T   T
 -2.2085946936608796 -0.4942739378256205 11.4672791138917596   T   T   T
  2.9347030122220521 -0.4061537349676213 11.3861341614274085   T   T   T
  8.0780007181049438 -0.3180335321096199 11.3049892089630362   T   T   T
 -0.4416883486509626  6.3613723479029378 11.4320085955728761   T   T   T
  4.7016093572319857  6.4494925507609624 11.3508636431084895   T   T   T
  9.8449070631148903  6.5376127536189479 11.2697186906441331   T   T   T
  4.4368121414341912  3.9325393636928929  1.9105298371772912   T   T   T
  9.5801098473171553  4.0206595665508962  1.8293848847129159   T   T   T
 14.7234075532001523  4.1087797694088986  1.7482399322485391   T   T   T
  6.2037184864441821 10.7881856494214574  1.8752593188583848   T   T   T
 11.3470161923271231 10.8763058522794722  1.7941143663940078   T   T   T
 16.4903138982099478 10.9644260551374622  1.7129694139296292   T   T   T
  2.3721450882476267  2.8144034838106045  8.9692882786880244   T   T   T
  7.5154427941305908  2.9025236866686033  8.8881433262236715   T   T   T
 12.6587405000135504  2.9906438895266025  8.8069983737592796   T   T   T
  4.1390514332575323  9.6700497695391423  8.9340177603691195   T   T   T
  9.2823491391404982  9.7581699723971838  8.8528728079047525   T   T   T
 14.4256468450234969  9.8462901752551648  8.7717278554403659   T   T   T
  0.4087248562720757  1.8930912450113695  5.0318131335501501   T   T   T
  5.5520225621550523  1.9812114478693714  4.9506681810857653   T   T   T
 10.6953202680379373  2.0693316507273751  4.8695232286213734   T   T   T
  2.1756312012819841  8.7487375307399091  4.9965426152312409   T   T   T
  7.3189289071649863  8.8368577335979008  4.9153976627668658   T   T   T
 12.4622266130479566  8.9249779364559068  4.8342527103024775   T   T   T
 -1.6559421969145254  0.7749553651290743 12.0905715750608600   T   T   T
  3.4873555089684318  0.8630755679870782 12.0094266225964521   T   T   T
  8.6306532148513213  0.9511957708450749 11.9282816701320851   T   T   T
  0.1109641480954126  7.6306016508576322 12.0553010567419392   T   T   T
  5.2542618539783534  7.7187218537156381 11.9741561042775526   T   T   T
 10.3975595598613353  7.8068420565736387 11.8930111518131678   T   T   T
  0.2034390817433170  1.7899027471611413  1.0814495502837960   T   T   T
  5.3467367876262673  1.8780229500191468  1.0003045978194174   T   T   T
 10.4900344935092065  1.9661431528771458  0.9191596453550396   T   T   T
  1.9703454267532583  8.6455490328897042  1.0461790319648907   T   T   T
  7.1136431326362199  8.7336692357476995  0.9650340795005093   T   T   T
 12.2569408385192276  8.8217894386057178  0.8838891270361318   T   T   T
 -1.8612279714432756  0.6717668672788517  8.1402079917945223   T   T   T
  3.2820697344396699  0.7598870701368539  8.0590630393301161   T   T   T
  8.4253674403225567  0.8480072729948546  7.9779180868657464   T   T   T
 -0.0943216264333439  7.5274131530074140  8.1049374734756086   T   T   T
  5.0489760794496021  7.6155333558654084  8.0237925210112202   T   T   T
 10.1922737853326044  7.7036535587234143  7.9426475685468398   T   T   T
  4.6420979159629683  4.0357278615431227  5.8608934204436540   T   T   T
  9.7853956218458702  4.1238480644011215  5.7797484679792710   T   T   T
 14.9286933277288973  4.2119682672591248  5.6986035155149084   T   T   T
  6.4090042609729529 10.8913741472716961  5.8256229021247483   T   T   T
 11.5523019668558362 10.9794943501296860  5.7444779496603662   T   T   T
 16.6955996727386378 11.0676145529876688  5.6633329971959840   T   T   T
  2.5774308627763980  2.9175919816608222 12.9196518619543710   T   T   T
  7.7207285686593474  3.0057121845188228 12.8385069094899791   T   T   T
 12.8640262745423257  3.0938323873768314 12.7573619570256067   T   T   T
  4.3443372077862854  9.7732382673894040 12.8843813436354626   T   T   T
  9.4876349136692451  9.8613584702474277 12.8032363911710956   T   T   T
 14.6309326195522438  9.9494786731053964 12.7220914387067019   T   T   T
  1.3152606833242320  1.0450597552258494  0.9100407155072332   T   T   T
  6.4585583892071829  1.1331799580838517  0.8288957630428566   T   T   T
 11.6018560950900955  1.2213001609418528  0.7477508105784785   T   T   T
  3.0821670283341600  7.9007060409544145  0.8747701971883280   T   T   T
  8.2254647342170415  7.9888262438124285  0.7936252447239509   T   T   T
 13.3687624401001042  8.0769464466704317  0.7124802922595692   T   T   T
 -0.7494063698623691 -0.0730761246564438  7.9687991570179522   T   T   T
  4.3938913360205216  0.0150440782015569  7.8876542045535585   T   T   T
  9.5371890419034866  0.1031642810595582  7.8065092520891906   T   T   T
  1.0174999751475629  6.7825701610721127  7.9335286386990527   T   T   T
  6.1607976810305196  6.8706903639301355  7.8523836862346732   T   T   T
 11.3040953869134917  6.9588105667881255  7.7712387337702751   T   T   T
  3.5302763143820690  4.7805708534784133  6.0323022552202197   T   T   T
  8.6735740202649563  4.8686910563364130  5.9511573027558349   T   T   T
 13.8168717261479674  4.9568112591944162  5.8700123502914598   T   T   T
  5.2971826593920044 11.6362171392069431  5.9970317369013033   T   T   T
 10.4404803652749774 11.7243373420649544  5.9158867844369345   T   T   T
 15.5837780711579299 11.8124575449229887  5.8347418319725461   T   T   T
  1.4656092611954772  3.6624349735961244 13.0910606967308940   T   T   T
  6.6089069670784433  3.7505551764541312 13.0099157442665412   T   T   T
 11.7522046729613674  3.8386753793121242 12.9287707918021564   T   T   T
  3.2325156062054119 10.5180812593246937 13.0557901784120318   T   T   T
  8.3758133120882814 10.6062014621827050 12.9746452259476435   T   T   T
 13.5191110179713316 10.6943216650406878 12.8935002734832604   T   T   T
  0.4688966162502692  2.9860004976312315  1.6828741089244752   T   T   T
  5.6121943221332327  3.0741207004892326  1.6017291564600971   T   T   T
 10.7554920280161372  3.1622409033472358  1.5205842039957191   T   T   T
  2.2358029612601986  9.8416467833597849  1.6476035906055684   T   T   T
  7.3791006671431711  9.9297669862177891  1.5664586381411916   T   T   T
 12.5223983730261565 10.0178871890758181  1.4853136856768134   T   T   T
 -1.5957704369363257  1.8678646177489464  8.7416325504352184   T   T   T
  3.5475272689466371  1.9559848206069506  8.6604875979708229   T   T   T
  8.6908249748294981  2.0441050234649447  8.5793426455064488   T   T   T
  0.1711359080736079  8.7235109034774201  8.7063620321162976   T   T   T
  5.3144336139565436  8.8116311063355006  8.6252170796519163   T   T   T
 10.4577313198395156  8.8997513091934763  8.5440721271875351   T   T   T
  4.3766403814560144  2.8396301110730229  5.2594688618029757   T   T   T
  9.5199380873389288  2.9277503139310253  5.1783239093385891   T   T   T
 14.6632357932219559  3.0158705167890254  5.0971789568742150   T   T   T
  6.1435467264659778  9.6952763968016118  5.2241983434840664   T   T   T
 11.2868444323489339  9.7833965996596000  5.1430533910196816   T   T   T
 16.4301421382317194  9.8715168025175881  5.0619084385553093   T   T   T
  2.3119733282694281  1.7214942311907302 12.3182273033136855   T   T   T
  7.4552710341523873  1.8096144340487301 12.2370823508492741   T   T   T
 12.5985687400353896  1.8977346369067321 12.1559373983849088   T   T   T
  4.0788796732793298  8.5771405169193304 12.2829567849947594   T   T   T
  9.2221773791622894  8.6652607197773293 12.2018118325303870   T   T   T
 14.3654750850453325  8.7533809226353281 12.1206668800660040   T   T   T
  4.1992419402661207  1.5138831585653594  0.6788389492373239   T   T   T
  9.3425396461490671  1.6020033614233655  0.5976939967729454   T   T   T
 14.4858373520321049  1.6901235642813657  0.5165490443085644   T   T   T
  5.9661482852760876  8.3695294442938977  0.6435684309184165   T   T   T
 11.1094459911590793  8.4576496471518841  0.5624234784540385   T   T   T
 16.2527436970419394  8.5457698500099415  0.4812785259896596   T   T   T
  2.1345748870795376  0.3957472786830682  7.7375973907480562   T   T   T
  7.2778725929625177  0.4838674815410715  7.6564524382836758   T   T   T
 12.4211702988455297  0.5719876843990735  7.5753074858192964   T   T   T
  3.9014812320895156  7.2513935644116483  7.7023268724291354   T   T   T
  9.0447789379724348  7.3395137672696471  7.6211819199647612   T   T   T
 14.1880766438554584  7.4276339701276441  7.5400369675003924   T   T   T
  0.6462950574401393  4.3117474501388848  6.2635040214901077   T   T   T
  5.7895927633230881  4.3998676529968979  6.1823590690257229   T   T   T
 10.9328904692060078  4.4879878558549136  6.1012141165613345   T   T   T
  2.4132014024500670 11.1673937358674884  6.2282335031712046   T   T   T
  7.5564991083330444 11.2555139387254801  6.1470885507068287   T   T   T
 12.6997968142159863 11.3436341415834612  6.0659435982424528   T   T   T
 -1.4183719957464531  3.1936115702566048 13.3222624630008433   T   T   T
  3.7249257101365023  3.2817317731146032 13.2411175105364780   T   T   T
  8.8682234160193456  3.3698519759726064 13.1599725580720968   T   T   T
  0.3485343492634798 10.0492578559851804 13.2869919446819615   T   T   T
  5.4918320551464310 10.1373780588432130 13.2058469922175483   T   T   T
 10.6351297610293543 10.2254982617012349 13.1247020397532008   T   T   T
  4.1608599474059833  5.8630793712953473  2.8027696399588384   T   T   T
  9.3041576532889412  5.9511995741533452  2.7216246874944598   T   T   T
 14.4474553591719435  6.0393197770113627  2.6404797350300813   T   T   T
  5.9277662924159369 12.7187256570239224  2.7674991216399367   T   T   T
 11.0710639982989267 12.8068458598819195  2.6863541691755524   T   T   T
 16.2143617041818047 12.8949660627399485  2.6052092167111787   T   T   T
  2.0961928942193957  4.7449434914130499  9.8615280814695545   T   T   T
  7.2394906001023775  4.8330636942710461  9.7803831290051733   T   T   T
 12.3827883059853523  4.9211838971290653  9.6992381765407973   T   T   T
  3.8630992392293577 11.6005897771416411  9.8262575631506515   T   T   T
  9.0063969451122485 11.6887099799996523  9.7451126106862684   T   T   T
 14.1496946509953094 11.7768301828576387  9.6639676582218677   T   T   T
  0.6846770503002905 -0.0374487625910952  4.1395733307685925   T   T   T
  5.8279747561832362  0.0506714402669059  4.0584283783042148   T   T   T
 10.9712724620661941  0.1387916431249068  3.9772834258398397   T   T   T
  2.4515833953102208  6.8181975231374627  4.1043028124496939   T   T   T
  7.5948811011931987  6.9063177259954722  4.0231578599853073   T   T   T
 12.7381788070761903  6.9944379288534737  3.9420129075209447   T   T   T
 -1.3799900028863077 -1.1555846424733891 11.1983317722793103   T   T   T
  3.7633077029966531 -1.0674644396153894 11.1171868198149486   T   T   T
  8.9066054088795727 -0.9793442367573889 11.0360418673505745   T   T   T
  0.3869163421236288  5.7000616432551698 11.1630612539604446   T   T   T
  5.5302140480065711  5.7881818461131891 11.0819163014960242   T   T   T
 10.6735117538895334  5.8763020489711906 11.0007713490316750   T   T   T
  0.4176959790750812  4.8911676973221647  3.5176021390440853   T   T   T
  5.5609936849580519  4.9792879001801813  3.4364571865797067   T   T   T
 10.7042913908409698  5.0674081030381766  3.3553122341153263   T   T   T
  2.1846023240849957 11.7468139830507177  3.4823316207251818   T   T   T
  7.3279000299679886 11.8349341859087236  3.4011866682607934   T   T   T
 12.4711977358509465 11.9230543887667046  3.3200417157964242   T   T   T
 -1.6469710741115164  3.7730318174398896 10.5763605805548284   T   T   T
  3.4963266317714452  3.8611520202978835 10.4952156280904347   T   T   T
  8.6396243376543111  3.9492722231558854 10.4140706756260606   T   T   T
  0.1199352708984186 10.6286781031683830 10.5410900622359112   T   T   T
  5.2632329767813832 10.7167983060264316 10.4599451097715459   T   T   T
 10.4065306826643340 10.8049185088844535 10.3788001573071682   T   T   T
  4.4278410186311730  0.9344629113820847  3.4247408316833523   T   T   T
  9.5711387245141637  1.0225831142400839  3.3435958792189795   T   T   T
 14.7144364303971340  1.1107033170980876  3.2624509267546022   T   T   T
  6.1947473636411630  7.7901091971106302  3.3894703133644479   T   T   T
 11.3380450695241439  7.8782293999686379  3.3083253609000693   T   T   T
 16.4813427754069117  7.9663496028266199  3.2271804084356948   T   T   T
  2.3631739654446151 -0.1836729685002105 10.4834992731940577   T   T   T
  7.5064716713275725 -0.0955527656422088 10.4023543207296925   T   T   T
 12.6497693772105979 -0.0074325627842071 10.3212093682653219   T   T   T
  4.1300803104545150  6.6719733172283453 10.4482287548751760   T   T   T
  9.2733780163374959  6.7600935200863574 10.3670838024107947   T   T   T
 14.4166757222205533  6.8482137229443385 10.2859388499463975   T   T   T
  5.6365836379468961  5.7331333129703683  1.8329459379872870   T   T   T
 10.7798813438298886  5.8212535158283618  1.7518009855229049   T   T   T
 15.9231790497128660  5.9093737186863651  1.6706560330585245   T   T   T
  7.4034899829568417 12.5887795986989559  1.7976754196683780   T   T   T
 12.5467876888398742 12.6768998015569245  1.7165304672039998   T   T   T
 17.6900853947226118 12.7650200044149518  1.6353855147396210   T   T   T
  3.5719165847603214  4.6149974330880701  8.8917043794979911   T   T   T
  8.7152142906432317  4.7031176359460822  8.8105594270336365   T   T   T
 13.8585119965262447  4.7912378388040811  8.7294144745692304   T   T   T
  5.3388229297702283 11.4706437188166444  8.8564338611790969   T   T   T
 10.4821206356532421 11.5587639216746361  8.7752889087147246   T   T   T
 15.6254183415362231 11.6468841245326384  8.6941439562503557   T   T   T
 -0.7910466402406123  0.0924972957339049  5.1093970327401443   T   T   T
  4.3522510656423234  0.1806174985919057  5.0282520802757702   T   T   T
  9.4955487715252485  0.2687377014499063  4.9471071278114014   T   T   T
  0.9758597047693224  6.9481435814624524  5.0741265144212271   T   T   T
  6.1191574106522859  7.0362637843204583  4.9929815619568636   T   T   T
 11.2624551165351594  7.1243839871784660  4.9118366094924832   T   T   T
 -2.8557136934272136 -1.0256385841483919 12.1681554742508649   T   T   T
  2.2875840124557310 -0.9375183812903883 12.0870105217864818   T   T   T
  7.4308817183387088 -0.8493981784323866 12.0058655693221130   T   T   T
 -1.0888073484172727  5.8300077015801657 12.1328849559319707   T   T   T
  4.0544903574656690  5.9181279044381627 12.0517400034675894   T   T   T
  9.1977880633485736  6.0062481072961669 11.9705950510032011   T   T   T
  3.7884274831367790  3.3858129302247000  2.5985047091361246   T   T   T
  8.9317251890196552  3.4739331330826966  2.5173597566717456   T   T   T
 14.0750228949026877  3.5620533359407047  2.4362148042073679   T   T   T
  5.5553338281466980 10.2414592159533022  2.5632341908172185   T   T   T
 10.6986315340296478 10.3295794188113117  2.4820892383528403   T   T   T
 15.8419292399126359 10.4176996216692928  2.4009442858884595   T   T   T
  1.7237604299501708  2.2676770503424080  9.6572631506468323   T   T   T
  6.8670581358331209  2.3557972532004117  9.5761181981824581   T   T   T
 12.0103558417160929  2.4439174560584060  9.4949732457180751   T   T   T
  3.4906667749601179  9.1233233360710244  9.6219926323279150   T   T   T
  8.6339644808430052  9.2114435389289842  9.5408476798635409   T   T   T
 13.7772621867260110  9.2995637417870132  9.4597027273991596   T   T   T
  1.0571095145695255  2.4398176784795664  4.3438382615913120   T   T   T
  6.2004072204525036  2.5279378813375737  4.2626933091269290   T   T   T
 11.3437049263354020  2.6160580841955712  4.1815483566625478   T   T   T
  2.8240158595794544  9.2954639642081425  4.3085677432724117   T   T   T
  7.9673135654624376  9.3835841670661004  4.2274227908080215   T   T   T
 13.1106112713453875  9.4717043699241117  4.1462778383436456   T   T   T
 -1.0075575386170670  1.3216817985972686 11.4025967031020450   T   T   T
  4.1357401672658449  1.4098020014552690 11.3214517506376602   T   T   T
  9.2790378731487966  1.4979222043132736 11.2403067981732843   T   T   T
  0.7593488063928716  8.1773280843258114 11.3673261847831384   T   T   T
  5.9026465122758003  8.2654482871838102 11.2861812323187607   T   T   T
 11.0459442181588070  8.3535684900418126 11.2050362798543954   T   T   T
  3.8955941770839519  4.1267674971389301  0.9852726844164408   T   T   T
  9.0388918829668263  4.2148876999969378  0.9041277319520654   T   T   T
 14.1821895888498997  4.3030079028549419  0.8229827794876834   T   T   T
  5.6625005220938949 10.9824137828675230  0.9500021660975337   T   T   T
 10.8057982279768066 11.0705339857255378  0.8688572136331564   T   T   T
 15.9490959338598071 11.1586541885835278  0.7877122611687793   T   T   T
  1.8309271238973372  3.0086316172566434  8.0440311259271517   T   T   T
  6.9742248297802991  3.0967518201146444  7.9628861734627892   T   T   T
 12.1175225356632925  3.1848720229726504  7.8817412209983999   T   T   T
  3.5978334689072926  9.8642779029852239  8.0087606076082505   T   T   T
  8.7411311747901639  9.9523981058432245  7.9276156551438550   T   T   T
 13.8844288806731644 10.0405183087012393  7.8464707026795057   T   T   T
  0.9499428206223653  1.6988631115653308  5.9570702863110014   T   T   T
  6.0932405265053200  1.7869833144233329  5.8759253338466237   T   T   T
 11.2365382323882681  1.8751035172813342  5.7947803813822460   T   T   T
  2.7168491656322904  8.5545093972938755  5.9217997679920904   T   T   T
  7.8601468715152709  8.6426296001518601  5.8406548155277100   T   T   T
 13.0034445773982164  8.7307498030098873  5.7595098630633359   T   T   T
 -1.1147242325642253  0.5807272316830350 13.0158287278217379   T   T   T
  4.0285734733186853  0.6688474345410360 12.9346837753573478   T   T   T
  9.1718711792016592  0.7569676373990379 12.8535388228929648   T   T   T
  0.6521821124456988  7.4363735174115977 12.9805582095028278   T   T   T
  5.7954798183286327  7.5244937202696018 12.8994132570384359   T   T   T
 10.9387775242116270  7.6126139231275873 12.8182683045740706   T   T   T
  2.2399336839704547  1.4348645450350923  1.0637225225414568   T   T   T
  7.3832313898534210  1.5229847478930965  0.9825775700770780   T   T   T
 12.5265290957364162  1.6111049507510959  0.9014326176126993   T   T   T
  4.0068400289803954  8.2905108307636759  1.0284520042225511   T   T   T
  9.1501377348633053  8.3786310336216872  0.9473070517581719   T   T   T
 14.2934354407463822  8.4667512364796629  0.8661620992937944   T   T   T
  0.1752666307838665  0.3167286651528027  8.1224809640521531   T   T   T
  5.3185643366667943  0.4048488680108023  8.0413360115878199   T   T   T
 10.4618620425497824  0.4929690708688041  7.9601910591234049   T   T   T
  1.9421729757938040  7.1723749508813555  8.0872104457332910   T   T   T
  7.0854706816767568  7.2604951537393569  8.0060654932688831   T   T   T
 12.2287683875597999  7.3486153565973646  7.9249205408045249   T   T   T
  2.6056033137358359  4.3907660636691688  5.8786204481859876   T   T   T
  7.7489010196188204  4.4788862665271774  5.7974754957216232   T   T   T
 12.8921987255017427  4.5670064693851780  5.7163305432572313   T   T   T
  4.3725096587457530 11.2464123493977315  5.8433499298670979   T   T   T
  9.5158073646286425 11.3345325522557339  5.7622049774027042   T   T   T
 14.6591050705116590 11.4226527551137078  5.6810600249383381   T   T   T
  0.5409362605492403  3.2726301837868652 12.9373788896966779   T   T   T
  5.6842339664321768  3.3607503866448747 12.8562339372323091   T   T   T
 10.8275316723151445  3.4488705895028748 12.7750889847679439   T   T   T
  2.3078426055591592 10.1282764695154714 12.9021083713777962   T   T   T
  7.4511403114421322 10.2163966723734472 12.8209634189134185   T   T   T
 12.5944380173251158 10.3045168752314460 12.7398184664490373   T   T   T
  1.2284197924367348  0.1814670930440002  0.3767878034658761   T   T   T
  6.3717174983197147  0.2695872959020012  0.2956428510014978   T   T   T
 11.5150152042026370  0.3577074987600026  0.2144978985371195   T   T   T
  2.9953261374466837  7.0371133787725739  0.3415172851469700   T   T   T
  8.1386238433296079  7.1252335816305790  0.2603723326825920   T   T   T
 13.2819215492126386  7.2133537844885840  0.1792273802182126   T   T   T
 -0.8362472607498520 -0.9366687868382940  7.4355462449765950   T   T   T
  4.3070504451330702 -0.8485485839802933  7.3544012925122342   T   T   T
  9.4503481510160441 -0.7604283811222913  7.2732563400478458   T   T   T
  0.9306590842600853  5.9189774988902704  7.4002757266577053   T   T   T
  6.0739567901430336  6.0070977017482701  7.3191307741933134   T   T   T
 11.2172544960260119  6.0952179046062733  7.2379858217289383   T   T   T
  3.6171172052695648  5.6441635156602636  6.5655551672615484   T   T   T
  8.7604149111524272  5.7322837185182651  6.4844102147971716   T   T   T
 13.9037126170354313  5.8204039213762870  6.4032652623327930   T   T   T
  5.3840235502794789 12.4998098013888299  6.5302846489426436   T   T   T
 10.5273212561624465 12.5879300042468252  6.4491396964782819   T   T   T
 15.6706189620454239 12.6760502071048080  6.3679947440138909   T   T   T
  1.5524501520829672  4.5260276357779832 13.6243136087722938   T   T   T
  6.6957478579659080  4.6141478386359678 13.5431686563079303   T   T   T
 11.8390455638488401  4.7022680414939799 13.4620237038435349   T   T   T
  3.3193564970929077 11.3816739215065628 13.5890430904533943   T   T   T
  8.4626542029757985 11.4697941243645687 13.5078981379890166   T   T   T
 13.6059519088587653 11.5579143272225302 13.4267531855246425   T   T   T
