 C  H  O 
 1.0000000000000000
    16.3105398848502183    0.0000000000000000    0.0304543460566240
     0.0000000000000000   12.1485423265581733    0.0000000000000000
    -7.2237743486866890    0.0000000000000000   14.4192677656989261
 C   H   O  
  72  72 144
Cartesian
 -1.6356491014375734  0.0227996928914618  4.8017962497944708
  3.8011975270757645  0.0227996930465779  4.8119476983191021
  9.2380441602989141  0.0227996973724479  4.8220991407945668
 -1.6356491018883814  6.0970708559753746  4.8017962500580689
  3.8011975228848458  6.0970708526467430  4.8119477035715361
  9.2380441524205494  6.0970708540557279  4.8220991502375927
 -4.0435738862982458  0.0227996955881964  9.6082188342391959
  1.3932727462444205  0.0227996990519709  9.6183702779592686
  6.8301193728154486  0.0227996977244476  9.6285217286265716
 -4.0435738781744268  6.0970708655193881  9.6082188247787048
  1.3932727439887456  6.0970708605307307  9.6183702805535578
  6.8301193738789623  6.0970708615839149  9.6285217277631681
 -6.4514986597330530  0.0227997033226636 14.4146414118074517
 -1.0146520366849290  0.0227996991646762 14.4247928663158369
  4.4221946046995946  0.0227997101142698 14.4349442993727557
 -6.4514986568782415  6.0970708687926640 14.4146414086047052
 -1.0146520295010844  6.0970708683731951 14.4247928578549338
  4.4221946059254229  6.0970708743192139 14.4349442980766973
  4.6645710639032911  6.0514714101622173  0.0147778842158136
 10.1014176851510147  6.0514714043915019  0.0249293412236934
 15.5382643131134106  6.0514714034280344  0.0350807913120032
  4.6645710698838254 12.1257425780224661  0.0147778777506376
 10.1014176867723009 12.1257425685627123  0.0249293399602036
 15.5382643147986919 12.1257425679353741  0.0350807895771643
  2.2566462676764090  6.0514713942897504  4.8212004958998520
  7.6934928966462532  6.0514713947964074  4.8313519438273618
 13.1303395235569997  6.0514713939483142  4.8415033937043592
  2.2566462671625103 12.1257425577017486  4.8212004956781467
  7.6934928900492414 12.1257425530773748  4.8313519509809622
 13.1303395214691569 12.1257425556930389  4.8415033958607729
 -0.1512784980313322  6.0514714122168778  9.6276230585302915
  5.2855681297171930  6.0514714114962711  9.6377745082605362
 10.7224147518973432  6.0514714063358728  9.6479259642927264
 -0.1512784984982865 12.1257425749527581  9.6276230592175303
  5.2855681283953935 12.1257425735036204  9.6377745101069827
 10.7224147609379834 12.1257425771490261  9.6479259535365323
  3.4606085243955569  3.0599353131249716  2.4179891712293431
  8.8974551473346946  3.0599353171903321  2.4281406256898079
 14.3343017717090611  3.0599353208522642  2.4382920796673986
  3.4606085225084819  9.1342064779949883  2.4179891735185564
  8.8974551444253365  9.1342064830749070  2.4281406293728711
 14.3343017673614934  9.1342064878503511  2.4382920849475531
  1.0526837218046414  3.0599353287207811  7.2244117820829254
  6.4895303492248715  3.0599353291452038  7.2345632313302728
 11.9263769794624377  3.0599353276691947  7.2447146779581990
  1.0526837255192820  9.1342064894566501  7.2244117784941988
  6.4895303569405094  9.1342064865948362  7.2345632230382622
 11.9263769821081844  9.1342064890526178  7.2447146752868177
 -1.3552410448747154  3.0599353146783423 12.0308343509274316
  4.0816055764602783  3.0599353203568085 12.0409858077964333
  9.5184522010646209  3.0599353237927156 12.0511372613120287
 -1.3552410497812746  9.1342064813262152 12.0308343557727078
  4.0816055732264989  9.1342064859680185 12.0409858111028036
  9.5184522070617650  9.1342064811481407 12.0511372528481111
 -0.4316867495431574  3.0143358244372465  2.3985847966328113
  5.0051598718020216  3.0143358299759426  2.4087362533095256
 10.4420065098753572  3.0143358217070628  2.4188876901173133
 -0.4316867463339402  9.0886069853700366  2.3985847933000448
  5.0051598716503074  9.0886069940231327  2.4087362544277204
 10.4420065114756433  9.0886069842411352  2.4188876890879261
 -2.8396115223492417  3.0143358174861472  7.2050073751271375
  2.5972351085877530  3.0143358148904005  7.2151588201007684
  8.0340817373019995  3.0143358146486188  7.2253102684002402
 -2.8396115234752952  9.0886069812455581  7.2050073758164341
  2.5972351019092805  9.0886069836550494  7.2151588279118819
  8.0340817294943054  9.0886069841124471  7.2253102772108093
 -5.2475363080975690  3.0143358182879001 12.0114299652443357
  0.1893103132040846  3.0143358239524121 12.0215814220433757
  5.6261569519272916  3.0143358149550199 12.0317328578683416
 -5.2475363086659135  9.0886069814425472 12.0114299651044441
  0.1893103223946131  9.0886069791282988 12.0215814104726668
  5.6261569532463298  9.0886069769628435 12.0317328560656609
  2.2927848626957892  5.4839963226119197  0.9858453696151227
  7.7296314913815651  5.4839963226043995  0.9959968183067366
 13.1664781207453991  5.4839963228187756  1.0061482667067514
  2.2927848616959450 11.5582674857802630  0.9858453698214563
  7.7296314903737509 11.5582674856552323  0.9959968186139931
 13.1664781204840065 11.5582674860416770  1.0061482667677528
 -0.1151399186795774  5.4839963223943435  5.7922679583639507
  5.3217067091009929  5.4839963222929420  5.8024194072038551
 10.7585533375766413  5.4839963223447370  5.8125708558202582
 -0.1151399186165072 11.5582674857000942  5.7922679583425740
  5.3217067102523137 11.5582674857249792  5.8024194069329278
 10.7585533387627166 11.5582674858902177  5.8125708554894269
 -2.5230647039544754  5.4839963225021338 10.5986905470343746
  2.9137819236587310  5.4839963222991601 10.6088419959533731
  8.3506285528550350  5.4839963223653490 10.6189934445117444
 -2.5230647049716857 11.5582674855186003 10.5986905474157691
  2.9137819240355372 11.5582674856408616 10.6088419958699465
  8.3506285517473327 11.5582674855661391 10.6189934446320233
  0.7361368324192308  0.5902748321016811  3.8307286680807904
  6.1729834600198918  0.5902748319215758  3.8408801169888482
 11.6098300880864258  0.5902748320422084  3.8510315656257363
  0.7361368326689823  6.6645459954223663  3.8307286680371644
  6.1729834613962158  6.6645459954548452  3.8408801166808741
 11.6098300892002921  6.6645459954347155  3.8510315654574505
 -1.6717879494286201  0.5902748325991645  8.6371512560771180
  3.7650586782991771  0.5902748325491254  8.6473027048496274
  9.2019053072963057  0.5902748326755892  8.6574541533429201
 -1.6717879502413484  6.6645459958604691  8.6371512561481634
  3.7650586786367444  6.6645459958551285  8.6473027047733630
  9.2019053060804374  6.6645459956658177  8.6574541537345802
 -4.0797127331185878  0.5902748326496734 13.4435738446667923
  1.3571338941317759  0.5902748323145776 13.4537252938227123
  6.7939805212811768  0.5902748322694851 13.4638767425609842
 -4.0797127341997319  6.6645459957141275 13.4435738449842468
  1.3571338931779928  6.6645459955033797 13.4537252939305390
  6.7939805208293160  6.6645459954791573 13.4638767426765131
  1.9400993183894788  2.4468608346587475  1.4275173001356045
  7.3769459465126044  2.4468608348103111  1.4376687489731235
 12.8137925734082003  2.4468608349302694  1.4478201979149765
  1.9400993179235377  8.5211319980070996  1.4275173002258783
  7.3769459462892026  8.5211319981621934  1.4376687491031992
 12.8137925728147728  8.5211319983400315  1.4478201981082499
 -0.4678254679669631  2.4468608353921275  6.2339398896667335
  4.9690211598183147  2.4468608354527142  6.2440913383869665
 10.4058677883406379  2.4468608353672661  6.2542427870311625
 -0.4678254673010504  8.5211319985391043  6.2339398894758240
  4.9690211615179676  8.5211319984396532  6.2440913379977045
 10.4058677894120546  8.5211319985361413  6.2542427868636041
 -2.8757502488873241  2.4468608348022869 11.0403624776468625
  2.5610963791234478  2.4468608350116137 11.0505139265607681
  7.9979430059786472  2.4468608351783798 11.0606653754829640
 -2.8757502496785952  8.5211319982676432 11.0403624778511666
  2.5610963776877784  8.5211319984508460 11.0505139267776933
  7.9979430064315897  8.5211319983017297 11.0606653752387256
  1.0888226169908295  3.6274103291283288  3.3890567371897795
  6.5256692447994444  3.6274103293318847  3.3992081861187873
 11.9625158747720857  3.6274103289974788  3.4093596343770285
  1.0888226176576143  9.7016814922929857  3.3890567370178184
  6.5256692451580296  9.7016814925910868  3.3992081861228738
 11.9625158754803724  9.7016814921927850  3.4093596342713002
 -1.3191021625177151  3.6274103285885460  8.1954793250777840
  4.1177444660454263  3.6274103285257797  8.2056307736238754
  9.5545910942588019  3.6274103285155190  8.2157822223054389
 -1.3191021629958646  9.7016814919306462  8.1954793251500568
  4.1177444645071057  9.7016814920372738  8.2056307739799283
  9.5545910929951425  9.7016814920521615  8.2157822226732886
 -3.7270269478210079  3.6274103287621524 13.0019019140673056
  1.7098196801960377  3.6274103289875383 13.0120533629842114
  7.1466663102175056  3.6274103286694364 13.0222048111894235
 -3.7270269476181039  9.7016814920682357 13.0019019140411167
  1.7098196815636186  9.7016814919702004 13.0120533625683610
  7.1466663096737211  9.7016814919457541 13.0222048111718482
 -1.0046249221906394  0.6206299502993802  3.9355798959166401
  4.4322217058512363  0.6206299500651293  3.9457313448724238
  9.8690683302936435  0.6206299464332609  3.9558827988318561
 -1.0046249220435668  6.6949011137283110  3.9355798957144770
  4.4322217093570737  6.6949011165550942  3.9457313402400005
  9.8690683363702139  6.6949011153772879  3.9558827906567089
 -3.4125497075225142  0.6206299481792282  8.7420024875278255
  2.0242969175099761  0.6206299451819293  8.7521539405963189
  7.4611435472779544  0.6206299464938548  8.7623053873843944
 -3.4125497134956824  6.6949011058345862  8.7420024956451368
  2.0242969193124907  6.6949011100958833  8.7521539381901778
  7.4611435464807636  6.6949011090531014  8.7623053883117823
 -5.8204744973789353  0.6206299416549741 13.5484250853855599
 -0.3836278656702321  0.6206299449958749 13.5585765292555553
  5.0532187525755363  0.6206299355852013 13.5687279915455701
 -5.8204744995547886  6.6949011029826080 13.5484250882501964
 -0.3836278711887050  6.6949011031982018 13.5585765366765241
  5.0532187517156162  6.6949010980766168 13.5687279926964734
  1.2913485872207389  5.4402331495498837  1.0254012092907829
  6.7281952154325939  5.4402331495417986  1.0355526580416112
 12.1650418421821840  5.4402331490136469  1.0457041074192170
  1.2913485884440232 11.5145043130035809  1.0254012090482598
  6.7281952168851911 11.5145043133527665  1.0355526573446918
 12.1650418425578195 11.5145043123648154  1.0457041073375746
 -1.1165761982953262  5.4402331516144153  5.8318237948303873
  4.3202704304978568  5.4402331520221177  5.8419752429692302
  9.7571170586866796  5.4402331518031728  5.8521266919748056
 -1.1165761984992502 11.5145043148963424  5.8318237948126157
  4.3202704292245802 11.5145043148805328  5.8419752435130681
  9.7571170570310439 11.5145043144291872  5.8521266927679187
 -3.5245009773447245  5.4402331498099290 10.6382463859678023
  1.9123456520527173  5.4402331502472823 10.6483978341124921
  7.3491922792277018  5.4402331502425758 10.6585492828104869
 -3.5245009757416610 11.5145043137208862 10.6382463851211391
  1.9123456515590203 11.5145043134435170 10.6483978342906447
  7.3491922804864362 11.5145043135043625 10.6585492828590898
  4.0335467199552513  5.4536411897138830  0.8809941595479661
  9.4703933535787836  5.4536411947094843  0.8911456010328702
 14.9072399828664341  5.4536411956073856  0.9012970484048213
  4.0335467157639204 11.5279123490594646  0.8809941651886261
  9.4703933525642885 11.5279123570577688  0.8911456022932980
 14.9072399817694823 11.5279123578549019  0.9012970498564854
  1.6256219518588626  5.4536412032108394  5.6874167285934281
  7.0624685795321431  5.4536412026973560  5.6975681780504610
 12.4993152086175421  5.4536412034485640  5.7077196256295659
  1.6256219516949415 11.5279123663649745  5.6874167287707804
  7.0624685841498689 11.5279123703353186  5.6975681718187294
 12.4993152101640064 11.5279123681604094  5.7077196236192211
 -0.7823028477701114  5.4536411879255109 10.4938393391993916
  4.6545437810359314  5.4536411884135569 10.5039907871188873
 10.0913904140381927  5.4536411928487443 10.5141422294061879
 -0.7823028474617035 11.5279123515343400 10.4938393387177200
  4.6545437822849367 11.5279123528328000 10.5039907854746115
 10.0913904071419189 11.5279123497167983 10.5141422387563814
  1.7375733388026284  0.6340381029430034  3.7911727146964136
  7.1744199680524057  0.6340381034120983  3.8013241628120418
 12.6112665963248336  0.6340381031261381  3.8114756117885493
  1.7375733382145093  6.7083092663264283  3.7911727144985630
  7.1744199660306300  6.7083092663092012  3.8013241632397659
 12.6112665950220464  6.7083092662928792  3.8114756118804358
 -0.6703514447435855  0.6340381006913430  8.5975953064865394
  4.7664951839939889  0.6340381008707737  8.6077467548903126
 10.2033418113807919  0.6340381005238090  8.6178982040459111
 -0.6703514439381297  6.7083092638916737  8.5975953065955348
  4.7664951836961542  6.7083092640392517  8.6077467551160058
 10.2033418131451441  6.7083092645236011  8.6178982031275133
 -3.0782762266103476  0.6340381002068090 13.4040178957122613
  2.3585704034648489  0.6340381010890028 13.4141693432135494
  7.7954170325622663  0.6340381011596523 13.4243207917441758
 -3.0782762249642155  6.7083092638323603 13.4040178952327409
  2.3585704046967315  6.7083092643197952 13.4141693433019178
  7.7954170332303949  6.7083092645603388 13.4243207916399410
  2.8295841862757594  3.6577655925301613  3.2842054647022079
  8.2664308181024584  3.6577655891019880  3.2943569085019626
 13.7032774499893595  3.6577655858288334  3.3045083524419985
  2.8295841878852444  9.7320367543688526  3.2842054626604638
  8.2664308205267325  9.7320367501806224  3.2943569053300839
 13.7032774534310171  9.7320367459265729  3.3045083478351387
  0.4216594179052218  3.6577655790383123  8.0906280338786534
  5.8585060467211942  3.6577655785811292  8.1007794819130421
 11.2953526737043912  3.6577655798494986  8.1109309323948384
  0.4216594155761209  9.7320367444949838  8.0906280370012169
  5.8585060412062564  9.7320367469706568  8.1007794892658751
 11.2953526717196855  9.7320367448676954  8.1109309349436991
 -1.9862653778226906  3.6577655910559330 12.8970506396138607
  3.4505812554754081  3.6577655863195848 12.9072020814314854
  8.8874278871452450  3.6577655831816802 12.9173535256499008
 -1.9862653747921577  9.7320367514235375 12.8970506354627634
  3.4505812578270714  9.7320367474307901 12.9072020783030403
  8.8874278817462180  9.7320367514750394 12.9173535328899707
  0.1993376858131086  2.4165055659862729  1.5323685717674440
  5.6361843191398568  2.4165055612867139  1.5425200136048405
 11.0730309396030560  2.4165055685191978  1.5526714727573792
  0.1993376836361418  8.4907767312888591  1.5323685747005593
  5.6361843196936530  8.4907767239884411  1.5425200128255103
 11.0730309387923622  8.4907767325295929  1.5526714738339771
 -2.2085871040675094  2.4165055722962685  6.3387911694452539
  3.2282595219334875  2.4165055744681712  6.3489426212670725
  8.6651061499360864  2.4165055746793263  6.3590940702706868
 -2.2085871035330253  8.4907767351156966  6.3387911687892773
  3.2282595271781225  8.4907767329471060  6.3489426142985952
  8.6651061557220910  8.4907767326361316  6.3590940625608550
 -4.6165118857131624  2.4165055713291350 11.1452137564132361
  0.8203347475302365  2.4165055665680950 11.1553651983092017
  6.2571813675551695  2.4165055743351629 11.1655166581521534
 -4.6165118859923071  8.4907767347406917 11.1452137566507226
  0.8203347400468528  8.4907767368011022 11.1553652083237971
  6.2571813665641844  8.4907767385560788 11.1655166595056290
  2.9415357297546594  2.4030977234298794  1.3879615818836681
  8.3783823587845863  2.4030977231155570  1.3981130302285671
 13.8152289883960382  2.4030977227388237  1.4082644782831699
  2.9415357302761640  8.4773688865714441  1.3879615816622797
  8.3783823590987261  8.4773688861273104  1.3981130298124995
 13.8152289892079843  8.4773688856695237  1.4082644777920970
  0.5336109518680493  2.4030977221030891  6.1943841686747652
  5.9704575808093345  2.4030977221298895  6.2045356174653925
 11.4073042086352316  2.4030977222342718  6.2146870662107965
  0.5336109506839829  8.4773688855107672  6.1943841688152821
  5.9704575783922733  8.4773688858007645  6.2045356179818736
 11.4073042073197595  8.4773688855763609  6.2146870662957774
 -1.8743138338193137  2.4030977235067281 11.0008067590144076
  3.5625327952996835  2.4030977229868631 11.0109582070082137
  8.9993794249528314  2.4030977225958399 11.0211096552070931
 -1.8743138323360899  8.4773688866196562 11.0008067588393423
  3.5625327970439660  8.4773688861444931 11.0109582069065084
  8.9993794245789971  8.4773688866440065 11.0211096562553088
  0.0873860691570369  3.6711734662045608  3.4286125215165519
  5.5242326984863679  3.6711734657527080  3.4387639696021166
 10.9610793246103650  3.6711734665226419  3.4489154192949720
  0.0873860681432765  9.7454446296244672  3.4286125216925316
  5.5242326978633001  9.7454446287772640  3.4387639692346519
 10.9610793235546158  9.7454446296995041  3.4489154191631370
 -2.3205387182477999  3.6711734666173648  8.2350351105569217
  3.1163079097588406  3.6711734669372835  8.2451865597170837
  8.5531545380402196  3.6711734669434142  8.2553380084262322
 -2.3205387175067060  9.7454446299593585  8.2350351106274395
  3.1163079116875303  9.7454446297412485  8.2451865590908593
  8.5531545399189834  9.7454446297307875  8.2553380077461380
 -4.7284634980049915  3.6711734668541292 13.0414576993408229
  0.7083831311316788  3.6711734663098228 13.0516091473990752
  6.1452297571996786  3.6711734671900258 13.0617605972661845
 -4.7284634978129292  9.7454446302728552 13.0414576995571796
  0.7083831294302166  9.7454446304624405 13.0516091485482271
  6.1452297576770754  9.7454446306551876 13.0617605975441151
