 C  H 
        1.0000000000
  16.450609254086746   0.000000000000000   0.232928479304809
   0.000000000000000  11.974016285211302   0.000000000000000
  -9.790909650677108   0.000000000000000  14.221717148562067
  160  128
 Direct
   0.043732449711593   0.009830466152144   0.165911106906369
   0.543732449711593   0.009830466152144   0.165911106906369
   0.043732449711593   0.509830466152144   0.165911106906369
   0.543732449711593   0.509830466152144   0.165911106906369
   0.043732449711593   0.009830466152144   0.665911106906369
   0.543732449711593   0.009830466152144   0.665911106906369
   0.043732449711593   0.509830466152144   0.665911106906369
   0.543732449711593   0.509830466152144   0.665911106906369
   0.456267535682862   0.490169525636730   0.334088895652389
   0.956267535682862   0.490169525636730   0.334088895652389
   0.456267535682862   0.990169525636730   0.334088895652389
   0.956267535682862   0.990169525636730   0.334088895652389
   0.456267535682862   0.490169525636730   0.834088895652389
   0.956267535682862   0.490169525636730   0.834088895652389
   0.456267535682862   0.990169525636730   0.834088895652389
   0.956267535682862   0.990169525636730   0.834088895652389
   0.206267526725490   0.259830459482361   0.334088895950096
   0.706267526725490   0.259830459482361   0.334088895950096
   0.206267526725490   0.759830459482361   0.334088895950096
   0.706267526725490   0.759830459482361   0.334088895950096
   0.206267526725490   0.259830459482361   0.834088895950096
   0.706267526725490   0.259830459482361   0.834088895950096
   0.206267526725490   0.759830459482361   0.834088895950096
   0.706267526725490   0.759830459482361   0.834088895950096
   0.293732456244294   0.240169522663418   0.165911106799558
   0.793732456244294   0.240169522663418   0.165911106799558
   0.293732456244294   0.740169522663418   0.165911106799558
   0.793732456244294   0.740169522663418   0.165911106799558
   0.293732456244294   0.240169522663418   0.665911106799558
   0.793732456244294   0.240169522663418   0.665911106799558
   0.293732456244294   0.740169522663418   0.665911106799558
   0.793732456244294   0.740169522663418   0.665911106799558
   0.057471334824820   0.081554805223929   0.111495709962280
   0.557471334824820   0.081554805223929   0.111495709962280
   0.057471334824820   0.581554805223929   0.111495709962280
   0.557471334824820   0.581554805223929   0.111495709962280
   0.057471334824820   0.081554805223929   0.611495709962280
   0.557471334824820   0.081554805223929   0.611495709962280
   0.057471334824820   0.581554805223929   0.611495709962280
   0.557471334824820   0.581554805223929   0.611495709962280
   0.442528636685579   0.418445205049078   0.388504285932429
   0.942528636685579   0.418445205049078   0.388504285932429
   0.442528636685579   0.918445205049078   0.388504285932429
   0.942528636685579   0.918445205049078   0.388504285932429
   0.442528636685579   0.418445205049078   0.888504285932429
   0.942528636685579   0.418445205049078   0.888504285932429
   0.442528636685579   0.918445205049078   0.888504285932429
   0.942528636685579   0.918445205049078   0.888504285932429
   0.192528655342140   0.331554797334068   0.388504291818169
   0.692528655342140   0.331554797334068   0.388504291818169
   0.192528655342140   0.831554797334068   0.388504291818169
   0.692528655342140   0.831554797334068   0.388504291818169
   0.192528655342140   0.331554797334068   0.888504291818169
   0.692528655342140   0.331554797334068   0.888504291818169
   0.192528655342140   0.831554797334068   0.888504291818169
   0.692528655342140   0.831554797334068   0.888504291818169
   0.307471348871687   0.168445198163194   0.111495716755048
   0.807471348871687   0.168445198163194   0.111495716755048
   0.307471348871687   0.668445198163194   0.111495716755048
   0.807471348871687   0.668445198163194   0.111495716755048
   0.307471348871687   0.168445198163194   0.611495716755048
   0.807471348871687   0.168445198163194   0.611495716755048
   0.307471348871687   0.668445198163194   0.611495716755048
   0.807471348871687   0.668445198163194   0.611495716755048
   0.023981318347235   0.052896894122924   0.018282741212895
   0.523981318347235   0.052896894122924   0.018282741212895
   0.023981318347235   0.552896894122924   0.018282741212895
   0.523981318347235   0.552896894122924   0.018282741212895
   0.023981318347235   0.052896894122924   0.518282741212895
   0.523981318347235   0.052896894122924   0.518282741212895
   0.023981318347235   0.552896894122924   0.518282741212895
   0.523981318347235   0.552896894122924   0.518282741212895
   0.476018638461351   0.447103127256662   0.481717251932805
   0.976018638461351   0.447103127256662   0.481717251932805
   0.476018638461351   0.947103127256662   0.481717251932805
   0.976018638461351   0.947103127256662   0.481717251932805
   0.476018638461351   0.447103127256662   0.981717251932805
   0.976018638461351   0.447103127256662   0.981717251932805
   0.476018638461351   0.947103127256662   0.981717251932805
   0.976018638461351   0.947103127256662   0.981717251932805
   0.226018668238022   0.302896889136745   0.481717259730194
   0.726018668238023   0.302896889136745   0.481717259730194
   0.226018668238022   0.802896889136745   0.481717259730194
   0.726018668238023   0.802896889136745   0.481717259730194
   0.226018668238022   0.302896889136745   0.981717259730194
   0.726018668238023   0.302896889136745   0.981717259730194
   0.226018668238022   0.802896889136745   0.981717259730194
   0.726018668238023   0.802896889136745   0.981717259730194
   0.273981344421178   0.197103118883256   0.018282746297527
   0.773981344421178   0.197103118883256   0.018282746297527
   0.273981344421178   0.697103118883256   0.018282746297527
   0.773981344421178   0.697103118883256   0.018282746297527
   0.273981344421178   0.197103118883256   0.518282746297527
   0.773981344421178   0.197103118883256   0.518282746297527
   0.273981344421178   0.697103118883256   0.518282746297527
   0.773981344421178   0.697103118883256   0.518282746297527
   0.036420215290349   0.125153335402599   0.460151033927168
   0.536420215290349   0.125153335402599   0.460151033927168
   0.036420215290349   0.625153335402599   0.460151033927168
   0.536420215290349   0.625153335402599   0.460151033927168
   0.036420215290349   0.125153335402599   0.960151033927168
   0.536420215290349   0.125153335402599   0.960151033927168
   0.036420215290349   0.625153335402599   0.960151033927168
   0.536420215290349   0.625153335402599   0.960151033927168
   0.463579746211103   0.374846678191844   0.039848961076208
   0.963579746211103   0.374846678191844   0.039848961076208
   0.463579746211103   0.874846678191844   0.039848961076208
   0.963579746211103   0.874846678191844   0.039848961076208
   0.463579746211103   0.374846678191844   0.539848961076208
   0.963579746211103   0.374846678191844   0.539848961076208
   0.463579746211103   0.874846678191844   0.539848961076208
   0.963579746211103   0.874846678191844   0.539848961076208
   0.213579767446909   0.375153329714345   0.039848964219137
   0.713579767446909   0.375153329714345   0.039848964219137
   0.213579767446909   0.875153329714345   0.039848964219137
   0.713579767446909   0.875153329714345   0.039848964219137
   0.213579767446909   0.375153329714345   0.539848964219137
   0.713579767446909   0.375153329714345   0.539848964219137
   0.213579767446909   0.875153329714345   0.539848964219137
   0.713579767446909   0.875153329714345   0.539848964219137
   0.286420249388908   0.124846679257285   0.460151041674418
   0.786420249388908   0.124846679257285   0.460151041674418
   0.286420249388908   0.624846679257285   0.460151041674418
   0.786420249388908   0.624846679257285   0.460151041674418
   0.286420249388908   0.124846679257285   0.960151041674418
   0.786420249388908   0.124846679257285   0.960151041674418
   0.286420249388908   0.624846679257285   0.960151041674418
   0.786420249388908   0.624846679257285   0.960151041674418
   0.003720877745898   0.094476605804812   0.370230968010844
   0.503720877745898   0.094476605804812   0.370230968010844
   0.003720877745898   0.594476605804812   0.370230968010844
   0.503720877745898   0.594476605804812   0.370230968010844
   0.003720877745898   0.094476605804812   0.870230968010844
   0.503720877745898   0.094476605804812   0.870230968010844
   0.003720877745898   0.594476605804812   0.870230968010844
   0.503720877745898   0.594476605804812   0.870230968010844
   0.496279114394165   0.405523387335023   0.129769042363915
   0.996279114394165   0.405523387335023   0.129769042363915
   0.496279114394165   0.905523387335023   0.129769042363915
   0.996279114394165   0.905523387335023   0.129769042363915
   0.496279114394165   0.405523387335023   0.629769042363915
   0.996279114394165   0.405523387335023   0.629769042363915
   0.496279114394165   0.905523387335023   0.629769042363915
   0.996279114394165   0.905523387335023   0.629769042363915
   0.246279114566249   0.344476600094361   0.129769038802184
   0.746279114566250   0.344476600094361   0.129769038802184
   0.246279114566249   0.844476600094361   0.129769038802184
   0.746279114566250   0.844476600094361   0.129769038802184
   0.246279114566249   0.344476600094361   0.629769038802184
   0.746279114566250   0.344476600094361   0.629769038802184
   0.246279114566249   0.844476600094361   0.629769038802184
   0.746279114566250   0.844476600094361   0.629769038802184
   0.253720884306490   0.155523390969981   0.370230963196485
   0.753720884306490   0.155523390969981   0.370230963196485
   0.253720884306490   0.655523390969981   0.370230963196485
   0.753720884306490   0.655523390969981   0.370230963196485
   0.253720884306490   0.155523390969981   0.870230963196485
   0.753720884306490   0.155523390969981   0.870230963196485
   0.253720884306490   0.655523390969981   0.870230963196485
   0.753720884306490   0.655523390969981   0.870230963196485
   0.069296368065388   0.033392172342686   0.236566358199710
   0.569296368065388   0.033392172342686   0.236566358199710
   0.069296368065388   0.533392172342686   0.236566358199710
   0.569296368065388   0.533392172342686   0.236566358199710
   0.069296368065388   0.033392172342686   0.736566358199710
   0.569296368065388   0.033392172342686   0.736566358199710
   0.069296368065388   0.533392172342686   0.736566358199710
   0.569296368065388   0.533392172342686   0.736566358199710
   0.430703648815047   0.466607803746010   0.263433658884297
   0.930703648815047   0.466607803746010   0.263433658884297
   0.430703648815047   0.966607803746010   0.263433658884297
   0.930703648815047   0.966607803746010   0.263433658884297
   0.430703648815047   0.466607803746010   0.763433658884296
   0.930703648815047   0.466607803746010   0.763433658884296
   0.430703648815047   0.966607803746010   0.763433658884296
   0.930703648815047   0.966607803746010   0.763433658884296
   0.180703612297905   0.283392172212779   0.263433639752460
   0.680703612297905   0.283392172212779   0.263433639752460
   0.180703612297905   0.783392172212779   0.263433639752460
   0.680703612297905   0.783392172212779   0.263433639752460
   0.180703612297905   0.283392172212779   0.763433639752460
   0.680703612297905   0.283392172212779   0.763433639752460
   0.180703612297905   0.783392172212779   0.763433639752460
   0.680703612297905   0.783392172212779   0.763433639752460
   0.319296328486988   0.216607797716197   0.236566337590769
   0.819296328486988   0.216607797716197   0.236566337590769
   0.319296328486988   0.716607797716197   0.236566337590769
   0.819296328486988   0.716607797716197   0.236566337590769
   0.319296328486988   0.216607797716197   0.736566337590769
   0.819296328486988   0.216607797716197   0.736566337590769
   0.319296328486988   0.716607797716197   0.736566337590769
   0.819296328486988   0.716607797716197   0.736566337590769
   0.093560603985444   0.161272337246631   0.138809616521370
   0.593560603985444   0.161272337246631   0.138809616521370
   0.093560603985444   0.661272337246631   0.138809616521370
   0.593560603985444   0.661272337246631   0.138809616521370
   0.093560603985444   0.161272337246631   0.638809616521370
   0.593560603985444   0.161272337246631   0.638809616521370
   0.093560603985444   0.661272337246631   0.638809616521370
   0.593560603985444   0.661272337246631   0.638809616521370
   0.406439378775473   0.338727657865385   0.361190390055166
   0.906439378775473   0.338727657865385   0.361190390055166
   0.406439378775473   0.838727657865385   0.361190390055166
   0.906439378775473   0.838727657865385   0.361190390055166
   0.406439378775473   0.338727657865385   0.861190390055166
   0.906439378775473   0.338727657865385   0.861190390055166
   0.406439378775473   0.838727657865385   0.861190390055166
   0.906439378775473   0.838727657865385   0.861190390055166
   0.156439400566935   0.411272347219759   0.361190396503913
   0.656439400566935   0.411272347219759   0.361190396503913
   0.156439400566935   0.911272347219759   0.361190396503913
   0.656439400566935   0.911272347219759   0.361190396503913
   0.156439400566935   0.411272347219759   0.861190396503913
   0.656439400566935   0.411272347219759   0.861190396503913
   0.156439400566935   0.911272347219759   0.861190396503913
   0.656439400566935   0.911272347219759   0.861190396503913
   0.343560619587807   0.088727662505672   0.138809617337579
   0.843560619587807   0.088727662505672   0.138809617337579
   0.343560619587807   0.588727662505672   0.138809617337579
   0.843560619587807   0.588727662505672   0.138809617337579
   0.343560619587807   0.088727662505672   0.638809617337579
   0.843560619587807   0.088727662505672   0.638809617337579
   0.343560619587807   0.588727662505672   0.638809617337579
   0.843560619587807   0.588727662505672   0.638809617337579
   0.072301027769011   0.204829739892669   0.487724589950950
   0.572301027769011   0.204829739892669   0.487724589950950
   0.072301027769011   0.704829739892669   0.487724589950950
   0.572301027769011   0.704829739892669   0.487724589950950
   0.072301027769011   0.204829739892669   0.987724589950950
   0.572301027769011   0.204829739892669   0.987724589950950
   0.072301027769011   0.704829739892669   0.987724589950950
   0.572301027769011   0.704829739892669   0.987724589950950
   0.427698935316770   0.295170269234339   0.012275400143973
   0.927698935316770   0.295170269234339   0.012275400143973
   0.427698935316770   0.795170269234339   0.012275400143973
   0.927698935316770   0.795170269234339   0.012275400143973
   0.427698935316770   0.295170269234339   0.512275400143973
   0.927698935316770   0.295170269234339   0.512275400143973
   0.427698935316770   0.795170269234339   0.512275400143973
   0.927698935316770   0.795170269234339   0.512275400143973
   0.177698960151256   0.454829737484614   0.012275409019922
   0.677698960151256   0.454829737484614   0.012275409019922
   0.177698960151256   0.954829737484614   0.012275409019922
   0.677698960151256   0.954829737484614   0.012275409019922
   0.177698960151256   0.454829737484614   0.512275409019922
   0.677698960151256   0.454829737484614   0.512275409019922
   0.177698960151256   0.954829737484614   0.512275409019922
   0.677698960151256   0.954829737484614   0.512275409019922
   0.322301077903674   0.045170279748300   0.487724605106319
   0.822301077903674   0.045170279748300   0.487724605106319
   0.322301077903674   0.545170279748300   0.487724605106319
   0.822301077903674   0.545170279748300   0.487724605106319
   0.322301077903674   0.045170279748300   0.987724605106319
   0.822301077903674   0.045170279748300   0.987724605106319
   0.322301077903674   0.545170279748300   0.987724605106319
   0.822301077903674   0.545170279748300   0.987724605106319
   0.014440116697558   0.150211497426041   0.327070430105969
   0.514440116697558   0.150211497426041   0.327070430105969
   0.014440116697558   0.650211497426041   0.327070430105969
   0.514440116697558   0.650211497426041   0.327070430105969
   0.014440116697558   0.150211497426041   0.827070430105969
   0.514440116697558   0.150211497426041   0.827070430105969
   0.014440116697558   0.650211497426041   0.827070430105969
   0.514440116697558   0.650211497426041   0.827070430105969
   0.485559898923845   0.349788482134941   0.172929579980459
   0.985559898923845   0.349788482134941   0.172929579980459
   0.485559898923845   0.849788482134941   0.172929579980459
   0.985559898923845   0.849788482134941   0.172929579980459
   0.485559898923845   0.349788482134941   0.672929579980459
   0.985559898923845   0.349788482134941   0.672929579980459
   0.485559898923845   0.849788482134941   0.672929579980459
   0.985559898923845   0.849788482134941   0.672929579980459
   0.235559896689557   0.400211510466211   0.172929581060437
   0.735559896689557   0.400211510466211   0.172929581060437
   0.235559896689557   0.900211510466211   0.172929581060437
   0.735559896689557   0.900211510466211   0.172929581060437
   0.235559896689557   0.400211510466211   0.672929581060437
   0.735559896689557   0.400211510466211   0.672929581060437
   0.235559896689557   0.900211510466211   0.672929581060437
   0.735559896689557   0.900211510466211   0.672929581060437
   0.264440106190480   0.099788492430117   0.327070425900429
   0.764440106190480   0.099788492430117   0.327070425900429
   0.264440106190480   0.599788492430117   0.327070425900429
   0.764440106190480   0.599788492430117   0.327070425900429
   0.264440106190480   0.099788492430117   0.827070425900429
   0.764440106190480   0.099788492430117   0.827070425900429
   0.264440106190480   0.599788492430117   0.827070425900429
   0.764440106190480   0.599788492430117   0.827070425900429
