 N  C  H 
 1.0000000000000000
    18.8438925444966330   -0.0001743174625260    0.0003042210448400
    -0.0001080560875900   11.5679454382495166    0.0000059657530750
     0.0001826116311600    0.0000060497631130   11.2695245524917560
 N   C   H  
  48  96  96
Cartesian
  1.4089926138245854  5.7839211000313870  3.7565569904592562
 10.8309388860729037  5.7838339413001325  3.7567091009816842
  1.4089385857807755 11.5678938191561489  3.7565599733357997
 10.8308848580290960 11.5678066604248801  3.7567120838582082
  1.4090534843682962  5.7839231166191034  7.5130651746231827
 10.8309997566166096  5.7838359578878418  7.5132172851456005
  1.4089994563245110 11.5678958357438368  7.5130681574997080
 10.8309457285728108 11.5678086770125645  7.5132202680221294
  1.4091143549120198  5.7839251332067789 11.2695733587870848
 10.8310606271603298  5.7838379744755324 11.2697254693095168
  1.4090603268682029 11.5678978523315621 11.2695763416636208
 10.8310065991165239 11.5678106936002578 11.2697284521860333
  8.0129808568880048 -0.0000288789268144  0.0001146474823922
 17.4349271291363088 -0.0001160376581132  0.0002667580047996
  8.0129268288442077  5.7839438401979066  0.0001176303589134
 17.4348731010924993  5.7838566814666592  0.0002697408813356
  8.0130417274317143 -0.0000268623391398  3.7566228316462986
 17.4349879996800325 -0.0001140210703939  3.7567749421687155
  8.0129876993879208  5.7839458567856212  3.7566258145228280
 17.4349339716362515  5.7838586980543578  3.7567779250452520
  8.0131025979754291 -0.0000248457514221  7.5131310158102176
 17.4350488702237385 -0.0001120044826954  7.5132831263326390
  8.0130485699316445  5.7839478733733154  7.5131339986867518
 17.4349948421799574  5.7838607146420502  7.5132861092091687
  6.1199629086212655  2.8919907506864622  1.8782789718040647
 15.5419091808695722  2.8919035919552072  1.8784310823264891
  6.1199088805774737  8.6759634698112365  1.8782819546806011
 15.5418551528257947  8.6758763110799659  1.8784340652030287
  6.1200237791649803  2.8919927672741688  5.6347871559679774
 15.5419700514133119  2.8919056085429182  5.6349392664904077
  6.1199697511211957  8.6759654863989244  5.6347901388445232
 15.5419160233695131  8.6758783276676539  5.6349422493669543
  6.1200846497087200  2.8919947838618718  9.3912953401318955
 15.5420309219570303  2.8919076251306222  9.3914474506543133
  6.1200306216649061  8.6759675029866283  9.3912983230084386
 15.5419768939132226  8.6758803442553685  9.3914504335308564
  3.3020116826143582  2.8919025607920759  1.8783879298375605
 12.7239579548626782  2.8918154020608160  1.8785400403599841
  3.3019576545705602  8.6758752799168377  1.8783909127141047
 12.7239039268188883  8.6757881211855903  1.8785430232365203
  3.3020725531580783  2.8919045773797802  5.6348961140014859
 12.7240188254063895  2.8918174186485137  5.6350482245238993
  3.3020185251142808  8.6758772965045523  5.6348990968780228
 12.7239647973625960  8.6757901377732907  5.6350512074004344
  3.3021334237017825  2.8919065939674855  9.3914042981654031
 12.7240796959501079  2.8918194352362194  9.3915564086878174
  3.3020793956579961  8.6758793130922562  9.3914072810419320
 12.7240256679063126  8.6757921543609857  9.3915593915643676
  0.6994051526304039  1.0480240639356071  0.4606795286650615
 10.1213514248787178  1.0479369052043508  0.4608316391874823
  0.6993511245865635  6.8319967830603563  0.4606825115416049
 10.1212973968349171  6.8319096243290760  0.4608346220640138
  0.6994660231741016  1.0480260805233015  4.2171877128289816
 10.1214122954224486  1.0479389217920556  4.2173398233514030
  0.6994119951303518  6.8319987996480958  4.2171906957055301
 10.1213582673786302  6.8319116409167977  4.2173428062279443
  0.6995268937177955  1.0480280971110072  7.9736958969928962
 10.1214731659661474  1.0479409383797536  7.9738480075153193
  0.6994728656740354  6.8320008162357651  7.9736988798694455
 10.1214191379223610  6.8319136575044892  7.9738509903918606
  0.6993562851776171  4.7359006627187687  3.2958798609435824
 10.1213025574258921  4.7358135039875018  3.2960319714659994
  0.6993022571337757 10.5198733818435404  3.2958828438201211
 10.1212485293821128 10.5197862231122610  3.2960349543425300
  0.6994171557213132  4.7359026793064620  7.0523880451074890
 10.1213634279696070  4.7358155205752102  7.0525401556299130
  0.6993631276774654 10.5198753984312479  7.0523910279840401
 10.1213093999258241 10.5197882396999685  7.0525431385064641
  0.6994780262649833  4.7359046958941953 10.8088962292714186
 10.1214242985133289  4.7358175371629265 10.8090483397938364
  0.6994239982212362 10.5198774150189358 10.8088992121479546
 10.1213702704695514 10.5197902562877026 10.8090513226703955
  8.7226171968787227  1.0479911964319708  0.4607925647249945
 18.1445634691270179  1.0479040377007363  0.4609446752474307
  8.7225631688349594  6.8319639155567522  0.4607955476015456
 18.1445094410832866  6.8318767568254763  0.4609476581239629
  8.7226780674224464  1.0479932130197147  4.2173007488889311
 18.1446243396707914  1.0479060542884460  4.2174528594113481
  8.7226240393786831  6.8319659321444757  4.2173037317654742
 18.1445703116269677  6.8318787734132140  4.2174558422878867
  8.7227389379661666  1.0479952296074064  7.9738089330528421
 18.1446852102145257  1.0479080708761326  7.9739610435752555
  8.7226849099223944  6.8319679487321840  7.9738119159294030
 18.1446311821707091  6.8318807900009109  7.9739640264518110
  8.7225682849472737  4.7358683935074355  3.2959914837507505
 18.1445145571955813  4.7357812347761454  3.2961435942731661
  8.7225142569034535 10.5198411126321805  3.2959944666272856
 18.1444605291517931 10.5197539539009330  3.2961465771497109
  8.7226291554909814  4.7358704100951599  7.0524996679146801
 18.1445754277393050  4.7357832513638645  7.0526517784370855
  8.7225751274471754 10.5198431292198737  7.0525026507911965
 18.1445213996955381 10.5197559704886316  7.0526547613136295
  8.7226900260347104  4.7358724266828522 10.8090078520785955
 18.1446362982830500  4.7357852679515728 10.8091599626010062
  8.7226359979908956 10.5198451458075795 10.8090108349551279
 18.1445822702391908 10.5197579870763249 10.8091629454775600
  5.4104055108811115  1.8439196245427294  2.3389627792594094
 14.8323517831294307  1.8438324658114729  2.3391148897818326
  5.4103514828373047  7.6278923436675026  2.3389657621359423
 14.8322977550856301  7.6278051849362480  2.3391178726583601
  5.4104663814248184  1.8439216411304389  6.0954709634233266
 14.8324126536731420  1.8438344823991586  6.0956230739457586
  5.4104123533810284  7.6278943602551976  6.0954739462998635
 14.8323586256293396  7.6278072015239413  6.0956260568222893
  5.4105272519685492  1.8439236577181171  9.8519791475872491
 14.8324735242168604  1.8438364989868608  9.8521312581096598
  5.4104732239247468  7.6278963768429175  9.8519821304637780
 14.8324194961730598  7.6278092181116417  9.8521342409861887
  4.0116713670256701  1.8438756526141113  2.3390148020691282
 13.4336176392739741  1.8437884938828579  2.3391669125915495
  4.0116173389818890  7.6278483717388825  2.3390177849456646
 13.4335636112302037  7.6277612130076120  2.3391698954680860
  4.0117322375693902  1.8438776692018319  6.0955229862330409
 13.4336785098176978  1.8437905104705521  6.0956750967554649
  4.0116782095256003  7.6278503883265687  6.0955259691095867
 13.4336244817739203  7.6277632295953062  6.0956780796320063
  4.0117931081131104  1.8438796857894970  9.8520311703969803
 13.4337393803614198  1.8437925270582567  9.8521832809193839
  4.0117390800693178  7.6278524049142824  9.8520341532735110
 13.4336853523176369  7.6277652461830154  9.8521862637959217
  4.0115690121141947  3.9399742165261427  1.4177050739449830
 13.4335152843625103  3.9398870577948757  1.4178571844674068
  4.0115149840704145  9.7239469356508987  1.4177080568215217
 13.4334612563187399  9.7238597769196389  1.4178601673439519
  4.0116298826579220  3.9399762331138519  5.1742132581089102
 13.4335761549062447  3.9398890743826072  5.1743653686313147
  4.0115758546141373  9.7239489522386027  5.1742162409854462
 13.4335221268624547  9.7238617935073339  5.1743683515078605
  4.0116907532016350  3.9399782497015763  8.9307214422728229
 13.4336370254499577  3.9398910909703129  8.9308735527952230
  4.0116367251578398  9.7239509688263048  8.9307244251493643
 13.4335829974061625  9.7238638100950432  8.9308765356717981
  5.4103032760219287  3.9400172635957285  1.4176510454608617
 14.8322495482702426  3.9399301048644526  1.4178031559832918
  5.4102492479781148  9.7239899827204859  1.4176540283374024
 14.8321955202264455  9.7239028239892331  1.4178061388598275
  5.4103641465656436  3.9400192801834213  5.1741592296247854
 14.8323104188139734  3.9399321214521721  5.1743113401472058
  5.4103101185218421  9.7239919993081898  5.1741622125013125
 14.8322563907701639  9.7239048405769335  5.1743143230237330
  5.4104250171093593  3.9400212967711630  8.9306674137886972
 14.8323712893576847  3.9399341380398814  8.9308195243111239
  5.4103709890655516  9.7239940158959026  8.9306703966652368
 14.8323172613138698  9.7239068571646374  8.9308225071876652
  1.2637815361716347  1.8929125897790202  0.8443696816817096
 10.6857278084199745  1.8928254310477544  0.8445217922041208
  1.2637275081278667  7.6768853089037803  0.8443726645582559
 10.6856737803761810  7.6767981501725284  0.8445247750806762
  1.2638424067153666  1.8929146063667350  4.6008778658456322
 10.6857886789636929  1.8928274476354574  4.6010299763680376
  1.2637883786715896  7.6768873254914807  4.6008808487221575
 10.6857346509199012  7.6768001667602235  4.6010329592445860
  1.2639032772590979  1.8929166229544334  8.3573860500095449
 10.6858495495074077  1.8928294642231600  8.3575381605319414
  1.2638492492152924  7.6768893420791890  8.3573890328860934
 10.6857955214636391  7.6768021833479194  8.3575411434085218
  1.2636893030641470  3.8909676202329231  2.9122231586251974
 10.6856355753124603  3.8908804615016503  2.9123752691476152
  1.2636352750203508  9.6749403393576721  2.9122261415017219
 10.6855815472686650  9.6748531806264246  2.9123782520241441
  1.2637501736078804  3.8909696368206266  6.6687313427891048
 10.6856964458561752  3.8908824780893587  6.6688834533115262
  1.2636961455640756  9.6749423559453707  6.6687343256656400
 10.6856424178123781  9.6748551972141019  6.6688864361880746
  1.2638110441515760  3.8909716534083127 10.4252395269530158
 10.6857573163999060  3.8908844946770604 10.4253916374754443
  1.2637570161077780  9.6749443725330906 10.4252425098295820
 10.6857032883561107  9.6748572138018059 10.4253946203520034
  8.1582842899620847  1.8929235852653266  0.8444510002820710
 17.5802305622103887  1.8928364265340492  0.8446031108044850
  8.1582302619182894  7.6768963043900866  0.8444539831586061
 17.5801765341665863  7.6768091456588214  0.8446060936810250
  8.1583451605058137  1.8929256018530225  4.6009591844459781
 17.5802914327541231  1.8928384431217682  4.6011112949684119
  8.1582911324620131  7.6768983209777764  4.6009621673225256
 17.5802374047103100  7.6768111622465023  4.6011142778449239
  8.1584060310495197  1.8929276184407238  8.3574673686098997
 17.5803523032978326  1.8928404597094759  8.3576194791323193
  8.1583520030057191  7.6769003375654812  8.3574703514864535
 17.5802982752540302  7.6768131788342098  8.3576224620088606
  8.1581912667983545  3.8909809236677217  2.9122999209725120
 17.5801375390466958  3.8908937649364654  2.9124520314949356
  8.1581372387545610  9.6749536427924774  2.9123029038490498
 17.5800835110028650  9.6748664840612122  2.9124550143714680
  8.1582521373420551  3.8909829402554283  6.6688081051364305
 17.5801984095903876  3.8908957815241618  6.6689602156588492
  8.1581981092982794  9.6749556593801849  6.6688110880129594
 17.5801443815465888  9.6748685006489019  6.6689631985353861
  8.1583130078857842  3.8909849568431247 10.4253162893003495
 17.5802592801341113  3.8908977981118498 10.4254683998227495
  8.1582589798419907  9.6749576759678817 10.4253192721768890
 17.5802052520903160  9.6748705172366112 10.4254713826993317
  5.9748000611898178  0.9990271510466205  2.7226182106221692
 15.3967463334381360  0.9989399923153577  2.7227703211445933
  5.9747460331460331  6.7829998701713876  2.7226211934987017
 15.3966923053943514  6.7829127114401144  2.7227733040211204
  5.9748609317335308  0.9990291676343194  6.4791263947860935
 15.3968072039818402  0.9989420089030642  6.4792785053085016
  5.9748069036897400  6.7830018867590756  6.4791293776626171
 15.3967531759380574  6.7829147280278193  6.4792814881850544
  5.9749218022772510  0.9990311842220286 10.2356345789499841
 15.3968680745255675  0.9989440254907670 10.2357866894723948
  5.9748677742334637  6.7830039033467777 10.2356375618265165
 15.3968140464817864  6.7829167446155214 10.2357896723489432
  3.4473569263287143  0.9989468078176515  2.7227071774481950
 12.8693031985770201  0.9988596490863916  2.7228592879706195
  3.4473028982849203  6.7829195269424112  2.7227101603247363
 12.8692491705332372  6.7828323682111513  2.7228622708471462
  3.4474177968724198  0.9989488244053532  6.4792153616121162
 12.8693640691207491  0.9988616656740975  6.4793674721345278
  3.4473637688286383  6.7829215435301116  6.4792183444886531
 12.8693100410769432  6.7828343847988570  6.4793704550110656
  3.4474786674161648  0.9989508409930704 10.2357235457760485
 12.8694249396644675  0.9988636822618061 10.2358756562984521
  3.4474246393723602  6.7829235601178235 10.2357265286525827
 12.8693709116206669  6.7828364013865556 10.2358786391750005
  3.4471740003310600  4.7848676041081850  1.0340521808746708
 12.8691202725793712  4.7847804453769234  1.0342042913970872
  3.4471199722872536 10.5688403232329495  1.0340551637512021
 12.8690662445355830 10.5687531645016968  1.0342072742736321
  3.4472348708747771  4.7848696206958978  4.7905603650385977
 12.8691811431231180  4.7847824619646264  4.7907124755610146
  3.4471808428309854 10.5688423398206535  4.7905633479151399
 12.8691271150793050 10.5687551810893954  4.7907154584375453
  3.4472957414185017  4.7848716372835858  8.5470685492025229
 12.8692420136668222  4.7847844785523153  8.5472206597249052
  3.4472417133746953 10.5688443564083627  8.5470715320790447
 12.8691879856230056 10.5687571976770993  8.5472236426014785
  5.9746184987019886  4.7849446241422759  1.0339565697162634
 15.3965647709503113  4.7848574654110116  1.0341086802386850
  5.9745644706581968 10.5689173432670511  1.0339595525928020
 15.3965107429065249 10.5688301845357877  1.0341116631152252
  5.9746793692457123  4.7849466407299843  4.7904647538801735
 15.3966256414940315  4.7848594819987182  4.7906168644026019
  5.9746253412019223 10.5689193598547373  4.7904677367567086
 15.3965716134502362 10.5688322011234792  4.7906198472791344
  5.9747402397894209  4.7849486573176794  8.5469729380441066
 15.3966865120377570  4.7848614985864319  8.5471250485665404
  5.9746862117456248 10.5689213764424501  8.5469759209206355
 15.3966324839939457 10.5688342177111938  8.5471280314430675
