super cell
        1.0000000000
  -7.017548817412179   7.017548817412179   7.017548817412179
   7.017548817412179  -7.017548817412179   7.017548817412179
   7.017548817412179   7.017548817412179  -7.017548817412179
   96   48   32
 Direct
   0.045890781331124   0.167225978268145   0.257505473500941
   0.545890781331124   0.167225978268145   0.257505473500941
   0.045890781331124   0.667225978268145   0.257505473500941
   0.545890781331124   0.667225978268145   0.257505473500941
   0.045890781331124   0.167225978268145   0.757505473500941
   0.545890781331124   0.167225978268145   0.757505473500941
   0.045890781331124   0.667225978268145   0.757505473500941
   0.545890781331124   0.667225978268145   0.757505473500941
   0.257507278568021   0.045888976264044   0.167225978268145
   0.757507278568021   0.045888976264044   0.167225978268145
   0.257507278568021   0.545888976264044   0.167225978268145
   0.757507278568021   0.545888976264044   0.167225978268145
   0.257507278568021   0.045888976264044   0.667225978268145
   0.757507278568021   0.045888976264044   0.667225978268145
   0.257507278568021   0.545888976264044   0.667225978268145
   0.757507278568021   0.545888976264044   0.667225978268145
   0.136170276563920   0.424551974259942   0.424551974259942
   0.636170276563920   0.424551974259942   0.424551974259942
   0.136170276563920   0.924551974259942   0.424551974259942
   0.636170276563920   0.924551974259942   0.424551974259942
   0.136170276563920   0.424551974259942   0.924551974259942
   0.636170276563920   0.424551974259942   0.924551974259942
   0.136170276563920   0.924551974259942   0.924551974259942
   0.636170276563920   0.924551974259942   0.924551974259942
   0.257507278568021   0.167225978268145   0.045888976264044
   0.757507278568021   0.167225978268145   0.045888976264044
   0.257507278568021   0.667225978268145   0.045888976264044
   0.757507278568021   0.667225978268145   0.045888976264044
   0.257507278568021   0.167225978268145   0.545888976264044
   0.757507278568021   0.167225978268145   0.545888976264044
   0.257507278568021   0.667225978268145   0.545888976264044
   0.757507278568021   0.667225978268145   0.545888976264044
   0.167227783335226   0.045888976264044   0.257505473500941
   0.667227783335226   0.045888976264044   0.257505473500941
   0.167227783335226   0.545888976264044   0.257505473500941
   0.667227783335226   0.545888976264044   0.257505473500941
   0.167227783335226   0.045888976264044   0.757505473500941
   0.667227783335226   0.045888976264044   0.757505473500941
   0.167227783335226   0.545888976264044   0.757505473500941
   0.667227783335226   0.545888976264044   0.757505473500941
   0.167227783335226   0.257505473500941   0.045888976264044
   0.667227783335226   0.257505473500941   0.045888976264044
   0.167227783335226   0.757505473500941   0.045888976264044
   0.667227783335226   0.757505473500941   0.045888976264044
   0.167227783335226   0.257505473500941   0.545888976264044
   0.667227783335226   0.257505473500941   0.545888976264044
   0.167227783335226   0.757505473500941   0.545888976264044
   0.667227783335226   0.757505473500941   0.545888976264044
   0.455611286098328   0.334272479027146   0.334272479027146
   0.955611286098328   0.334272479027146   0.334272479027146
   0.455611286098328   0.834272479027146   0.334272479027146
   0.955611286098328   0.834272479027146   0.334272479027146
   0.455611286098328   0.334272479027146   0.834272479027146
   0.955611286098328   0.334272479027146   0.834272479027146
   0.455611286098328   0.834272479027146   0.834272479027146
   0.955611286098328   0.834272479027146   0.834272479027146
   0.334274284094226   0.455609481031248   0.334272479027146
   0.834274284094226   0.455609481031248   0.334272479027146
   0.334274284094226   0.955609481031248   0.334272479027146
   0.834274284094226   0.955609481031248   0.334272479027146
   0.334274284094226   0.455609481031248   0.834272479027146
   0.834274284094226   0.455609481031248   0.834272479027146
   0.334274284094226   0.955609481031248   0.834272479027146
   0.834274284094226   0.955609481031248   0.834272479027146
   0.424553779327022   0.136168471496840   0.424551974259942
   0.924553779327022   0.136168471496840   0.424551974259942
   0.424553779327022   0.636168471496840   0.424551974259942
   0.924553779327022   0.636168471496840   0.424551974259942
   0.424553779327022   0.136168471496840   0.924551974259942
   0.924553779327022   0.136168471496840   0.924551974259942
   0.424553779327022   0.636168471496840   0.924551974259942
   0.924553779327022   0.636168471496840   0.924551974259942
   0.045890781331124   0.257505473500941   0.167225978268145
   0.545890781331124   0.257505473500941   0.167225978268145
   0.045890781331124   0.757505473500941   0.167225978268145
   0.545890781331124   0.757505473500941   0.167225978268145
   0.045890781331124   0.257505473500941   0.667225978268145
   0.545890781331124   0.257505473500941   0.667225978268145
   0.045890781331124   0.757505473500941   0.667225978268145
   0.545890781331124   0.757505473500941   0.667225978268145
   0.424553779327022   0.424551974259942   0.136168471496840
   0.924553779327022   0.424551974259942   0.136168471496840
   0.424553779327022   0.924551974259942   0.136168471496840
   0.924553779327022   0.924551974259942   0.136168471496840
   0.424553779327022   0.424551974259942   0.636168471496840
   0.924553779327022   0.424551974259942   0.636168471496840
   0.424553779327022   0.924551974259942   0.636168471496840
   0.924553779327022   0.924551974259942   0.636168471496840
   0.334274284094226   0.334272479027146   0.455609481031248
   0.834274284094226   0.334272479027146   0.455609481031248
   0.334274284094226   0.834272479027146   0.455609481031248
   0.834274284094226   0.834272479027146   0.455609481031248
   0.334274284094226   0.334272479027146   0.955609481031248
   0.834274284094226   0.334272479027146   0.955609481031248
   0.334274284094226   0.834272479027146   0.955609481031248
   0.834274284094226   0.834272479027146   0.955609481031248
   0.045890781331124   0.167846759029604   0.167846759029604
   0.545890781331124   0.167846759029604   0.167846759029604
   0.045890781331124   0.667846759029604   0.167846759029604
   0.545890781331124   0.667846759029604   0.167846759029604
   0.045890781331124   0.167846759029604   0.667846759029604
   0.545890781331124   0.167846759029604   0.667846759029604
   0.045890781331124   0.667846759029604   0.667846759029604
   0.545890781331124   0.667846759029604   0.667846759029604
   0.167848564096684   0.045888976264044   0.167846759029604
   0.667848564096684   0.045888976264044   0.167846759029604
   0.167848564096684   0.545888976264044   0.167846759029604
   0.667848564096684   0.545888976264044   0.167846759029604
   0.167848564096684   0.045888976264044   0.667846759029604
   0.667848564096684   0.045888976264044   0.667846759029604
   0.167848564096684   0.545888976264044   0.667846759029604
   0.667848564096684   0.545888976264044   0.667846759029604
   0.045890781331124   0.423931193498483   0.423931193498483
   0.545890781331124   0.423931193498483   0.423931193498483
   0.045890781331124   0.923931193498483   0.423931193498483
   0.545890781331124   0.923931193498483   0.423931193498483
   0.045890781331124   0.423931193498483   0.923931193498483
   0.545890781331124   0.423931193498483   0.923931193498483
   0.045890781331124   0.923931193498483   0.923931193498483
   0.545890781331124   0.923931193498483   0.923931193498483
   0.167848564096684   0.167846759029604   0.045888976264044
   0.667848564096684   0.167846759029604   0.045888976264044
   0.167848564096684   0.667846759029604   0.045888976264044
   0.667848564096684   0.667846759029604   0.045888976264044
   0.167848564096684   0.167846759029604   0.545888976264044
   0.667848564096684   0.167846759029604   0.545888976264044
   0.167848564096684   0.667846759029604   0.545888976264044
   0.667848564096684   0.667846759029604   0.545888976264044
   0.423932998565563   0.045888976264044   0.423931193498483
   0.923932998565563   0.045888976264044   0.423931193498483
   0.423932998565563   0.545888976264044   0.423931193498483
   0.923932998565563   0.545888976264044   0.423931193498483
   0.423932998565563   0.045888976264044   0.923931193498483
   0.923932998565563   0.045888976264044   0.923931193498483
   0.423932998565563   0.545888976264044   0.923931193498483
   0.923932998565563   0.545888976264044   0.923931193498483
   0.423932998565563   0.423931193498483   0.045888976264044
   0.923932998565563   0.423931193498483   0.045888976264044
   0.423932998565563   0.923931193498483   0.045888976264044
   0.923932998565563   0.923931193498483   0.045888976264044
   0.423932998565563   0.423931193498483   0.545888976264044
   0.923932998565563   0.423931193498483   0.545888976264044
   0.423932998565563   0.923931193498483   0.545888976264044
   0.923932998565563   0.923931193498483   0.545888976264044
   0.171065589048522   0.171063783981442   0.171063783981442
   0.671065589048522   0.171063783981442   0.171063783981442
   0.171065589048522   0.671063783981442   0.171063783981442
   0.671065589048522   0.671063783981442   0.171063783981442
   0.171065589048522   0.171063783981442   0.671063783981442
   0.671065589048522   0.171063783981442   0.671063783981442
   0.171065589048522   0.671063783981442   0.671063783981442
   0.671065589048522   0.671063783981442   0.671063783981442
   0.045890781331124   0.420714168546645   0.045888976264044
   0.545890781331124   0.420714168546645   0.045888976264044
   0.045890781331124   0.920714168546645   0.045888976264044
   0.545890781331124   0.920714168546645   0.045888976264044
   0.045890781331124   0.420714168546645   0.545888976264044
   0.545890781331124   0.420714168546645   0.545888976264044
   0.045890781331124   0.920714168546645   0.545888976264044
   0.545890781331124   0.920714168546645   0.545888976264044
   0.045890781331124   0.045888976264044   0.420714168546645
   0.545890781331124   0.045888976264044   0.420714168546645
   0.045890781331124   0.545888976264044   0.420714168546645
   0.545890781331124   0.545888976264044   0.420714168546645
   0.045890781331124   0.045888976264044   0.920714168546645
   0.545890781331124   0.045888976264044   0.920714168546645
   0.045890781331124   0.545888976264044   0.920714168546645
   0.545890781331124   0.545888976264044   0.920714168546645
   0.420715973613725   0.045888976264043   0.045888976264043
   0.920715973613725   0.045888976264043   0.045888976264043
   0.420715973613725   0.545888976264043   0.045888976264043
   0.920715973613725   0.545888976264043   0.045888976264043
   0.420715973613725   0.045888976264043   0.545888976264043
   0.920715973613725   0.045888976264043   0.545888976264043
   0.420715973613725   0.545888976264043   0.545888976264043
   0.920715973613725   0.545888976264043   0.545888976264043
