 C  H 
        1.0000000000
  14.964440123786062   0.000000000000000   0.000000000000000
   0.000000000000000  18.552275472336603   0.000000000000000
   0.000000000000000   0.000000000000000  13.922213604754791
  192  192
 Direct
   0.469322840084351   0.071196311650566   0.494459809074573
   0.969322840084351   0.071196311650566   0.494459809074573
   0.469322840084351   0.571196311650566   0.494459809074573
   0.969322840084351   0.571196311650566   0.494459809074573
   0.469322840084351   0.071196311650566   0.994459809074573
   0.969322840084351   0.071196311650566   0.994459809074573
   0.469322840084351   0.571196311650566   0.994459809074573
   0.969322840084351   0.571196311650566   0.994459809074573
   0.431361233958647   0.023520356892153   0.060927801775128
   0.931361233958647   0.023520356892153   0.060927801775128
   0.431361233958647   0.523520356892153   0.060927801775128
   0.931361233958647   0.523520356892153   0.060927801775128
   0.431361233958647   0.023520356892153   0.560927801775128
   0.931361233958647   0.023520356892153   0.560927801775128
   0.431361233958647   0.523520356892153   0.560927801775128
   0.931361233958647   0.523520356892153   0.560927801775128
   0.037765514667335   0.047606484476835   0.433522468286997
   0.537765514667335   0.047606484476835   0.433522468286997
   0.037765514667335   0.547606484476835   0.433522468286997
   0.537765514667335   0.547606484476835   0.433522468286997
   0.037765514667335   0.047606484476835   0.933522468286997
   0.537765514667335   0.047606484476835   0.933522468286997
   0.037765514667335   0.547606484476835   0.933522468286997
   0.537765514667335   0.547606484476835   0.933522468286997
   0.462234485332663   0.452393514767317   0.066477538347672
   0.962234485332663   0.452393514767317   0.066477538347672
   0.462234485332663   0.952393514767317   0.066477538347672
   0.962234485332663   0.952393514767317   0.066477538347672
   0.462234485332663   0.452393514767317   0.566477538347672
   0.962234485332663   0.452393514767317   0.566477538347672
   0.462234485332663   0.952393514767317   0.566477538347672
   0.962234485332663   0.952393514767317   0.566477538347672
   0.068638766041351   0.476479642351999   0.439072204859542
   0.568638766041351   0.476479642351999   0.439072204859542
   0.068638766041351   0.976479642351999   0.439072204859542
   0.568638766041351   0.976479642351999   0.439072204859542
   0.068638766041351   0.476479642351999   0.939072204859542
   0.568638766041351   0.476479642351999   0.939072204859542
   0.068638766041351   0.976479642351999   0.939072204859542
   0.568638766041351   0.976479642351999   0.939072204859542
   0.030677159915647   0.428803687593587   0.005540197560096
   0.530677159915647   0.428803687593587   0.005540197560096
   0.030677159915647   0.928803687593587   0.005540197560096
   0.530677159915647   0.928803687593587   0.005540197560096
   0.030677159915647   0.428803687593587   0.505540197560096
   0.530677159915647   0.428803687593587   0.505540197560096
   0.030677159915647   0.928803687593587   0.505540197560096
   0.530677159915647   0.928803687593587   0.505540197560096
   0.280677159915645   0.321196311650566   0.494459809074573
   0.780677159915645   0.321196311650566   0.494459809074573
   0.280677159915645   0.821196311650566   0.494459809074573
   0.780677159915645   0.821196311650566   0.494459809074573
   0.280677159915645   0.321196311650566   0.994459809074573
   0.780677159915645   0.321196311650566   0.994459809074573
   0.280677159915645   0.821196311650566   0.994459809074573
   0.780677159915645   0.821196311650566   0.994459809074573
   0.469322840084351   0.178803687593587   0.244459809074575
   0.969322840084351   0.178803687593587   0.244459809074575
   0.469322840084351   0.678803687593587   0.244459809074575
   0.969322840084351   0.678803687593587   0.244459809074575
   0.469322840084351   0.178803687593587   0.744459809074575
   0.969322840084351   0.178803687593587   0.744459809074575
   0.469322840084351   0.678803687593587   0.744459809074575
   0.969322840084351   0.678803687593587   0.744459809074575
   0.280677159915645   0.428803687593587   0.244459809074575
   0.780677159915645   0.428803687593587   0.244459809074575
   0.280677159915645   0.928803687593587   0.244459809074575
   0.780677159915645   0.928803687593587   0.244459809074575
   0.280677159915645   0.428803687593587   0.744459809074575
   0.780677159915645   0.428803687593587   0.744459809074575
   0.280677159915645   0.928803687593587   0.744459809074575
   0.780677159915645   0.928803687593587   0.744459809074575
   0.219322840084353   0.178803687593587   0.005540197560096
   0.719322840084353   0.178803687593587   0.005540197560096
   0.219322840084353   0.678803687593587   0.005540197560096
   0.719322840084353   0.678803687593587   0.005540197560096
   0.219322840084353   0.178803687593587   0.505540197560096
   0.719322840084353   0.178803687593587   0.505540197560096
   0.219322840084353   0.678803687593587   0.505540197560096
   0.719322840084353   0.678803687593587   0.505540197560096
   0.030677159915647   0.321196311650566   0.255540197560095
   0.530677159915647   0.321196311650566   0.255540197560095
   0.030677159915647   0.821196311650566   0.255540197560095
   0.530677159915647   0.821196311650566   0.255540197560095
   0.030677159915647   0.321196311650566   0.755540197560095
   0.530677159915647   0.321196311650566   0.755540197560095
   0.030677159915647   0.821196311650566   0.755540197560095
   0.530677159915647   0.821196311650566   0.755540197560095
   0.219322840084353   0.071196311650566   0.255540197560095
   0.719322840084353   0.071196311650566   0.255540197560095
   0.219322840084353   0.571196311650566   0.255540197560095
   0.719322840084353   0.571196311650566   0.255540197560095
   0.219322840084353   0.071196311650566   0.755540197560095
   0.719322840084353   0.071196311650566   0.755540197560095
   0.219322840084353   0.571196311650566   0.755540197560095
   0.719322840084353   0.571196311650566   0.755540197560095
   0.318638766041350   0.273520356892152   0.060927801775128
   0.818638766041350   0.273520356892152   0.060927801775128
   0.318638766041350   0.773520356892152   0.060927801775128
   0.818638766041350   0.773520356892152   0.060927801775128
   0.318638766041350   0.273520356892152   0.560927801775128
   0.818638766041350   0.273520356892152   0.560927801775128
   0.318638766041350   0.773520356892152   0.560927801775128
   0.818638766041350   0.773520356892152   0.560927801775128
   0.431361233958647   0.226479642352000   0.310927801775126
   0.931361233958647   0.226479642352000   0.310927801775126
   0.431361233958647   0.726479642352000   0.310927801775126
   0.931361233958647   0.726479642352000   0.310927801775126
   0.431361233958647   0.226479642352000   0.810927801775126
   0.931361233958647   0.226479642352000   0.810927801775126
   0.431361233958647   0.726479642352000   0.810927801775126
   0.931361233958647   0.726479642352000   0.810927801775126
   0.318638766041350   0.476479642351999   0.310927801775126
   0.818638766041350   0.476479642351999   0.310927801775126
   0.318638766041350   0.976479642351999   0.310927801775126
   0.818638766041350   0.976479642351999   0.310927801775126
   0.318638766041350   0.476479642351999   0.810927801775126
   0.818638766041350   0.476479642351999   0.810927801775126
   0.318638766041350   0.976479642351999   0.810927801775126
   0.818638766041350   0.976479642351999   0.810927801775126
   0.181361233958648   0.226479642352000   0.439072204859542
   0.681361233958648   0.226479642352000   0.439072204859542
   0.181361233958648   0.726479642352000   0.439072204859542
   0.681361233958648   0.726479642352000   0.439072204859542
   0.181361233958648   0.226479642352000   0.939072204859542
   0.681361233958648   0.226479642352000   0.939072204859542
   0.181361233958648   0.726479642352000   0.939072204859542
   0.681361233958648   0.726479642352000   0.939072204859542
   0.068638766041351   0.273520356892152   0.189072204859543
   0.568638766041351   0.273520356892152   0.189072204859543
   0.068638766041351   0.773520356892152   0.189072204859543
   0.568638766041351   0.773520356892152   0.189072204859543
   0.068638766041351   0.273520356892152   0.689072204859543
   0.568638766041351   0.273520356892152   0.689072204859543
   0.068638766041351   0.773520356892152   0.689072204859543
   0.568638766041351   0.773520356892152   0.689072204859543
   0.181361233958648   0.023520356892153   0.189072204859543
   0.681361233958648   0.023520356892153   0.189072204859543
   0.181361233958648   0.523520356892153   0.189072204859543
   0.681361233958648   0.523520356892153   0.189072204859543
   0.181361233958648   0.023520356892153   0.689072204859543
   0.681361233958648   0.023520356892153   0.689072204859543
   0.181361233958648   0.523520356892153   0.689072204859543
   0.681361233958648   0.523520356892153   0.689072204859543
   0.212234485332665   0.297606484476835   0.433522468286997
   0.712234485332665   0.297606484476835   0.433522468286997
   0.212234485332665   0.797606484476835   0.433522468286997
   0.712234485332665   0.797606484476835   0.433522468286997
   0.212234485332665   0.297606484476835   0.933522468286997
   0.712234485332665   0.297606484476835   0.933522468286997
   0.212234485332665   0.797606484476835   0.933522468286997
   0.712234485332665   0.797606484476835   0.933522468286997
   0.037765514667335   0.202393514767318   0.183522468286998
   0.537765514667335   0.202393514767318   0.183522468286998
   0.037765514667335   0.702393514767318   0.183522468286998
   0.537765514667335   0.702393514767318   0.183522468286998
   0.037765514667335   0.202393514767318   0.683522468286998
   0.537765514667335   0.202393514767318   0.683522468286998
   0.037765514667335   0.702393514767318   0.683522468286998
   0.537765514667335   0.702393514767318   0.683522468286998
   0.212234485332665   0.452393514767317   0.183522468286998
   0.712234485332665   0.452393514767317   0.183522468286998
   0.212234485332665   0.952393514767317   0.183522468286998
   0.712234485332665   0.952393514767317   0.183522468286998
   0.212234485332665   0.452393514767317   0.683522468286998
   0.712234485332665   0.452393514767317   0.683522468286998
   0.212234485332665   0.952393514767317   0.683522468286998
   0.712234485332665   0.952393514767317   0.683522468286998
   0.287765514667333   0.202393514767318   0.066477538347672
   0.787765514667333   0.202393514767318   0.066477538347672
   0.287765514667333   0.702393514767318   0.066477538347672
   0.787765514667333   0.702393514767318   0.066477538347672
   0.287765514667333   0.202393514767318   0.566477538347672
   0.787765514667333   0.202393514767318   0.566477538347672
   0.287765514667333   0.702393514767318   0.566477538347672
   0.787765514667333   0.702393514767318   0.566477538347672
   0.462234485332663   0.297606484476835   0.316477538347671
   0.962234485332663   0.297606484476835   0.316477538347671
   0.462234485332663   0.797606484476835   0.316477538347671
   0.962234485332663   0.797606484476835   0.316477538347671
   0.462234485332663   0.297606484476835   0.816477538347671
   0.962234485332663   0.297606484476835   0.816477538347671
   0.462234485332663   0.797606484476835   0.816477538347671
   0.962234485332663   0.797606484476835   0.816477538347671
   0.287765514667333   0.047606484476835   0.316477538347671
   0.787765514667333   0.047606484476835   0.316477538347671
   0.287765514667333   0.547606484476835   0.316477538347671
   0.787765514667333   0.547606484476835   0.316477538347671
   0.287765514667333   0.047606484476835   0.816477538347671
   0.787765514667333   0.047606484476835   0.816477538347671
   0.287765514667333   0.547606484476835   0.816477538347671
   0.787765514667333   0.547606484476835   0.816477538347671
   0.445779477939554   0.126373272946391   0.490103712803424
   0.945779477939554   0.126373272946391   0.490103712803424
   0.445779477939554   0.626373272946391   0.490103712803424
   0.945779477939554   0.626373272946391   0.490103712803424
   0.445779477939554   0.126373272946391   0.990103712803424
   0.945779477939554   0.126373272946391   0.990103712803424
   0.445779477939554   0.626373272946391   0.990103712803424
   0.945779477939554   0.626373272946391   0.990103712803424
   0.377911937703838   0.041215712059835   0.107916094195006
   0.877911937703838   0.041215712059835   0.107916094195006
   0.377911937703838   0.541215712059835   0.107916094195006
   0.877911937703838   0.541215712059835   0.107916094195006
   0.377911937703838   0.041215712059835   0.607916094195006
   0.877911937703838   0.041215712059835   0.607916094195006
   0.377911937703838   0.541215712059835   0.607916094195006
   0.877911937703838   0.541215712059835   0.607916094195006
   0.066706259642685   0.084245088355240   0.381581251937485
   0.566706259642685   0.084245088355240   0.381581251937485
   0.066706259642685   0.584245088355240   0.381581251937485
   0.566706259642685   0.584245088355240   0.381581251937485
   0.066706259642685   0.084245088355240   0.881581251937485
   0.566706259642685   0.084245088355240   0.881581251937485
   0.066706259642685   0.584245088355240   0.881581251937485
   0.566706259642685   0.584245088355240   0.881581251937485
   0.433293740357313   0.415754910888913   0.118418754697184
   0.933293740357313   0.415754910888913   0.118418754697184
   0.433293740357313   0.915754910888913   0.118418754697184
   0.933293740357313   0.915754910888913   0.118418754697184
   0.433293740357313   0.415754910888913   0.618418754697184
   0.933293740357313   0.415754910888913   0.618418754697184
   0.433293740357313   0.915754910888913   0.618418754697184
   0.933293740357313   0.915754910888913   0.618418754697184
   0.122088062296161   0.458784287184318   0.392083912439663
   0.622088062296161   0.458784287184318   0.392083912439663
   0.122088062296161   0.958784287184318   0.392083912439663
   0.622088062296161   0.958784287184318   0.392083912439663
   0.122088062296161   0.458784287184318   0.892083912439663
   0.622088062296161   0.458784287184318   0.892083912439663
   0.122088062296161   0.958784287184318   0.892083912439663
   0.622088062296161   0.958784287184318   0.892083912439663
   0.054220522060444   0.373626726297762   0.009896293831245
   0.554220522060444   0.373626726297762   0.009896293831245
   0.054220522060444   0.873626726297762   0.009896293831245
   0.554220522060444   0.873626726297762   0.009896293831245
   0.054220522060444   0.373626726297762   0.509896293831245
   0.554220522060444   0.373626726297762   0.509896293831245
   0.054220522060444   0.873626726297762   0.509896293831245
   0.554220522060444   0.873626726297762   0.509896293831245
   0.304220522060442   0.376373272946391   0.490103712803424
   0.804220522060442   0.376373272946391   0.490103712803424
   0.304220522060442   0.876373272946391   0.490103712803424
   0.804220522060442   0.876373272946391   0.490103712803424
   0.304220522060442   0.376373272946391   0.990103712803424
   0.804220522060442   0.376373272946391   0.990103712803424
   0.304220522060442   0.876373272946391   0.990103712803424
   0.804220522060442   0.876373272946391   0.990103712803424
   0.445779477939554   0.123626726297762   0.240103712803426
   0.945779477939554   0.123626726297762   0.240103712803426
   0.445779477939554   0.623626726297762   0.240103712803426
   0.945779477939554   0.623626726297762   0.240103712803426
   0.445779477939554   0.123626726297762   0.740103712803426
   0.945779477939554   0.123626726297762   0.740103712803426
   0.445779477939554   0.623626726297762   0.740103712803426
   0.945779477939554   0.623626726297762   0.740103712803426
   0.304220522060442   0.373626726297762   0.240103712803426
   0.804220522060442   0.373626726297762   0.240103712803426
   0.304220522060442   0.873626726297762   0.240103712803426
   0.804220522060442   0.873626726297762   0.240103712803426
   0.304220522060442   0.373626726297762   0.740103712803426
   0.804220522060442   0.373626726297762   0.740103712803426
   0.304220522060442   0.873626726297762   0.740103712803426
   0.804220522060442   0.873626726297762   0.740103712803426
   0.195779477939555   0.123626726297762   0.009896293831245
   0.695779477939555   0.123626726297762   0.009896293831245
   0.195779477939555   0.623626726297762   0.009896293831245
   0.695779477939555   0.623626726297762   0.009896293831245
   0.195779477939555   0.123626726297762   0.509896293831245
   0.695779477939555   0.123626726297762   0.509896293831245
   0.195779477939555   0.623626726297762   0.509896293831245
   0.695779477939555   0.623626726297762   0.509896293831245
   0.054220522060444   0.376373272946391   0.259896293831244
   0.554220522060444   0.376373272946391   0.259896293831244
   0.054220522060444   0.876373272946391   0.259896293831244
   0.554220522060444   0.876373272946391   0.259896293831244
   0.054220522060444   0.376373272946391   0.759896293831244
   0.554220522060444   0.376373272946391   0.759896293831244
   0.054220522060444   0.876373272946391   0.759896293831244
   0.554220522060444   0.876373272946391   0.759896293831244
   0.195779477939555   0.126373272946391   0.259896293831244
   0.695779477939555   0.126373272946391   0.259896293831244
   0.195779477939555   0.626373272946391   0.259896293831244
   0.695779477939555   0.626373272946391   0.259896293831244
   0.195779477939555   0.126373272946391   0.759896293831244
   0.695779477939555   0.126373272946391   0.759896293831244
   0.195779477939555   0.626373272946391   0.759896293831244
   0.695779477939555   0.626373272946391   0.759896293831244
   0.372088062296160   0.291215712059834   0.107916094195006
   0.872088062296160   0.291215712059834   0.107916094195006
   0.372088062296160   0.791215712059834   0.107916094195006
   0.872088062296160   0.791215712059834   0.107916094195006
   0.372088062296160   0.291215712059834   0.607916094195006
   0.872088062296160   0.291215712059834   0.607916094195006
   0.372088062296160   0.791215712059834   0.607916094195006
   0.872088062296160   0.791215712059834   0.607916094195006
   0.377911937703838   0.208784287184318   0.357916094195005
   0.877911937703838   0.208784287184318   0.357916094195005
   0.377911937703838   0.708784287184318   0.357916094195005
   0.877911937703838   0.708784287184318   0.357916094195005
   0.377911937703838   0.208784287184318   0.857916094195005
   0.877911937703838   0.208784287184318   0.857916094195005
   0.377911937703838   0.708784287184318   0.857916094195005
   0.877911937703838   0.708784287184318   0.857916094195005
   0.372088062296160   0.458784287184318   0.357916094195005
   0.872088062296160   0.458784287184318   0.357916094195005
   0.372088062296160   0.958784287184318   0.357916094195005
   0.872088062296160   0.958784287184318   0.357916094195005
   0.372088062296160   0.458784287184318   0.857916094195005
   0.872088062296160   0.458784287184318   0.857916094195005
   0.372088062296160   0.958784287184318   0.857916094195005
   0.872088062296160   0.958784287184318   0.857916094195005
   0.127911937703838   0.208784287184318   0.392083912439663
   0.627911937703838   0.208784287184318   0.392083912439663
   0.127911937703838   0.708784287184318   0.392083912439663
   0.627911937703838   0.708784287184318   0.392083912439663
   0.127911937703838   0.208784287184318   0.892083912439663
   0.627911937703838   0.208784287184318   0.892083912439663
   0.127911937703838   0.708784287184318   0.892083912439663
   0.627911937703838   0.708784287184318   0.892083912439663
   0.122088062296161   0.291215712059834   0.142083912439665
   0.622088062296161   0.291215712059834   0.142083912439665
   0.122088062296161   0.791215712059834   0.142083912439665
   0.622088062296161   0.791215712059834   0.142083912439665
   0.122088062296161   0.291215712059834   0.642083912439665
   0.622088062296161   0.291215712059834   0.642083912439665
   0.122088062296161   0.791215712059834   0.642083912439665
   0.622088062296161   0.791215712059834   0.642083912439665
   0.127911937703838   0.041215712059835   0.142083912439665
   0.627911937703838   0.041215712059835   0.142083912439665
   0.127911937703838   0.541215712059835   0.142083912439665
   0.627911937703838   0.541215712059835   0.142083912439665
   0.127911937703838   0.041215712059835   0.642083912439665
   0.627911937703838   0.041215712059835   0.642083912439665
   0.127911937703838   0.541215712059835   0.642083912439665
   0.627911937703838   0.541215712059835   0.642083912439665
   0.183293740357313   0.334245088355240   0.381581251937485
   0.683293740357313   0.334245088355240   0.381581251937485
   0.183293740357313   0.834245088355240   0.381581251937485
   0.683293740357313   0.834245088355240   0.381581251937485
   0.183293740357313   0.334245088355240   0.881581251937485
   0.683293740357313   0.334245088355240   0.881581251937485
   0.183293740357313   0.834245088355240   0.881581251937485
   0.683293740357313   0.834245088355240   0.881581251937485
   0.066706259642685   0.165754910888913   0.131581251937486
   0.566706259642685   0.165754910888913   0.131581251937486
   0.066706259642685   0.665754910888913   0.131581251937486
   0.566706259642685   0.665754910888913   0.131581251937486
   0.066706259642685   0.165754910888913   0.631581251937486
   0.566706259642685   0.165754910888913   0.631581251937486
   0.066706259642685   0.665754910888913   0.631581251937486
   0.566706259642685   0.665754910888913   0.631581251937486
   0.183293740357313   0.415754910888913   0.131581251937486
   0.683293740357313   0.415754910888913   0.131581251937486
   0.183293740357313   0.915754910888913   0.131581251937486
   0.683293740357313   0.915754910888913   0.131581251937486
   0.183293740357313   0.415754910888913   0.631581251937486
   0.683293740357313   0.415754910888913   0.631581251937486
   0.183293740357313   0.915754910888913   0.631581251937486
   0.683293740357313   0.915754910888913   0.631581251937486
   0.316706259642684   0.165754910888913   0.118418754697184
   0.816706259642684   0.165754910888913   0.118418754697184
   0.316706259642684   0.665754910888913   0.118418754697184
   0.816706259642684   0.665754910888913   0.118418754697184
   0.316706259642684   0.165754910888913   0.618418754697184
   0.816706259642684   0.165754910888913   0.618418754697184
   0.316706259642684   0.665754910888913   0.618418754697184
   0.816706259642684   0.665754910888913   0.618418754697184
   0.433293740357313   0.334245088355240   0.368418754697183
   0.933293740357313   0.334245088355240   0.368418754697183
   0.433293740357313   0.834245088355240   0.368418754697183
   0.933293740357313   0.834245088355240   0.368418754697183
   0.433293740357313   0.334245088355240   0.868418754697183
   0.933293740357313   0.334245088355240   0.868418754697183
   0.433293740357313   0.834245088355240   0.868418754697183
   0.933293740357313   0.834245088355240   0.868418754697183
   0.316706259642684   0.084245088355240   0.368418754697183
   0.816706259642684   0.084245088355240   0.368418754697183
   0.316706259642684   0.584245088355240   0.368418754697183
   0.816706259642684   0.584245088355240   0.368418754697183
   0.316706259642684   0.084245088355240   0.868418754697183
   0.816706259642684   0.084245088355240   0.868418754697183
   0.316706259642684   0.584245088355240   0.868418754697183
   0.816706259642684   0.584245088355240   0.868418754697183
