 C  H  O 
 1.0000000000000000
    11.3733492979948707    0.0000004053614334    0.0158013555765513
    -0.0000006089903850   17.0353932848513843    0.0000013143763235
    -0.2868497346908870   -0.0000008070030364   10.3265139019051624
 C   H   O  
  64  96  64
Selective dynamics
Cartesian
  0.3410603857608667  7.9366882250619772  5.0433343303336988   T   T   T
  6.0277350347582965  7.9366884277426939  5.0512350081219832   T   T   T
  0.3410600812656733 16.4543848674876649  5.0433349875218605   T   T   T
  6.0277347302631101 16.4543850701683780  5.0512356653101413   T   T   T
  0.1976355184154242  7.9366878215604650 10.2065912812862667   T   T   T
  5.8843101674128571  7.9366880242411808 10.2144919590745449   T   T   T
  0.1976352139202318 16.4543844639861483 10.2065919384744355   T   T   T
  5.8843098629176689 16.4543846666668721 10.2144926162627030   T   T   T
  5.2022335674002020  0.5810082165417138  0.1278602879408950   T   T   T
 10.8889082163976294  0.5810084192224311  0.1357609657291705   T   T   T
  5.2022332629050085  9.0987048589674018  0.1278609451290567   T   T   T
 10.8889079119024377  9.0987050616481184  0.1357616229173323   T   T   T
  5.0588087000547617  0.5810078130401948  5.2911172388934791   T   T   T
 10.7454833490521846  0.5810080157209123  5.2990179166817502   T   T   T
  5.0588083955595700  9.0987044554658869  5.2911178960816336   T   T   T
 10.7454830445569876  9.0987046581466071  5.2990185738698985   T   T   T
  0.4127729301408099  4.8398561864691052  2.4617056159194122   T   T   T
  6.0994475791382490  4.8398563891498210  2.4696062937076930   T   T   T
  0.4127726256456169 13.3575528288948284  2.4617062731075756   T   T   T
  6.0994472746430590 13.3575530315755433  2.4696069508958565   T   T   T
  0.2693480627953668  4.8398557829675823  7.6249625668719769   T   T   T
  5.9560227117928015  4.8398559856482963  7.6328632446602525   T   T   T
  0.2693477583001743 13.3575524253932940  7.6249632240601439   T   T   T
  5.9560224072976089 13.3575526280740178  7.6328639018484168   T   T   T
  5.1305210230202567  3.6778402551345866  2.7094890023551836   T   T   T
 10.8171956720176805  3.6778404578153094  2.7173896801434632   T   T   T
  5.1305207185250579 12.1955368975603253  2.7094896595433480   T   T   T
 10.8171953675224799 12.1955371002410384  2.7173903373316226   T   T   T
  4.9870961556748075  3.6778398516330770  7.8727459533077768   T   T   T
 10.6737708046722215  3.6778400543137897  7.8806466310960461   T   T   T
  4.9870958511796104 12.1955364940588016  7.8727466104959376   T   T   T
 10.6737705001770458 12.1955366967395165  7.8806472882842042   T   T   T
  1.3652804072726121  8.2285721300905195  3.9649739452622250   T   T   T
  7.0519550562700539  8.2285723327712379  3.9728746230505014   T   T   T
  1.3652801027774186 16.7462687725162311  3.9649746024503836   T   T   T
  7.0519547517748604 16.7462689751969585  3.9728752802386622   T   T   T
  1.2218555399271669  8.2285717265890028  9.1282308962147365   T   T   T
  6.9085301889245967  8.2285719292697141  9.1361315740030555   T   T   T
  1.2218552354319721 16.7462683690147074  9.1282315534028946   T   T   T
  6.9085298844293987 16.7462685716954134  9.1361322311912154   T   T   T
  4.1780135458884491  0.2891243115131558  1.2062206730123879   T   T   T
  9.8646881948858685  0.2891245141938728  1.2141213508006639   T   T   T
  4.1780132413932485  8.8068209539388587  1.2062213302005518   T   T   T
  9.8646878903906838  8.8068211566195700  1.2141220079888275   T   T   T
  4.0345886785430185  0.2891239080116376  6.3694776239649578   T   T   T
  9.7212633275404148  0.2891241106923543  6.3773783017532395   T   T   T
  4.0345883740478214  8.8068205504373402  6.3694782811531185   T   T   T
  9.7212630230452319  8.8068207531180622  6.3773789589413958   T   T   T
  1.4369929725213910  4.5479725210724036  1.3833451858069759   T   T   T
  7.1236676215188393  4.5479727237531211  1.3912458635952505   T   T   T
  1.4369926680261991 13.0656691634981517  1.3833458429951393   T   T   T
  7.1236673170236546 13.0656693661788594  1.3912465207834137   T   T   T
  1.2935681051759482  4.5479721175708923  6.5466021367595388   T   T   T
  6.9802427541733927  4.5479723202516071  6.5545028145478188   T   T   T
  1.2935678006807545 13.0656687599966315  6.5466027939477005   T   T   T
  6.9802424496782027 13.0656689626773534  6.5545034717359822   T   T   T
  4.1063009806396735  3.9697239205312833  3.7878494324676262   T   T   T
  9.7929756296370840  3.9697241232119964  3.7957501102559026   T   T   T
  4.1063006761444720 12.4874205629569932  3.7878500896557892   T   T   T
  9.7929753251418798 12.4874207656377259  3.7957507674440616   T   T   T
  3.9628761132942429  3.9697235170297636  8.9511063834201927   T   T   T
  9.6495507622916552  3.9697237197104789  8.9590070612084869   T   T   T
  3.9628758087990530 12.4874201594554890  8.9511070406083508   T   T   T
  9.6495504577964599 12.4874203621362021  8.9590077183966592   T   T   T
  5.4822972584696190  7.0356734308684299  4.7438463791605843   T   T   T
 11.1689719074670375  7.0356736335491474  4.7517470569488731   T   T   T
  5.4822969539744211 15.5533700732941291  4.7438470363487495   T   T   T
 11.1689716029718422 15.5533702759748529  4.7517477141370348   T   T   T
  5.3388723911241716  7.0356730273669150  9.9071033301131610   T   T   T
 11.0255470401216034  7.0356732300476263  9.9150040079014357   T   T   T
  5.3388720866289701 15.5533696697926160  9.9071039873013245   T   T   T
 11.0255467356263939 15.5533698724733433  9.9150046650895973   T   T   T
  0.0609966946914620  1.4820230107352601  0.4273482391140164   T   T   T
  5.7476713436888955  1.4820232134159737  0.4352489169022917   T   T   T
  0.0609963901962695  9.9997196531609678  0.4273488963021780   T   T   T
  5.7476710391936967  9.9997198558416986  0.4352495740904533   T   T   T
 -0.0824281726539808  1.4820226072337399  5.5906051900665723   T   T   T
  5.6042464763434623  1.4820228099144566  5.5985058678548629   T   T   T
 -0.0824284771491735  9.9997192496594511  5.5906058472547349   T   T   T
  5.6042461718482617  9.9997194523401802  5.5985065250430148   T   T   T
  5.5540097384296203  5.7408713944603855  2.1622178037830402   T   T   T
 11.2406843874270432  5.7408715971410960  2.1701184815713108   T   T   T
  5.5540094339344366 14.2585680368861087  2.1622184609712032   T   T   T
 11.2406840829318391 14.2585682395668183  2.1701191387594734   T   T   T
  5.4105848710841826  5.7408709909588662  7.3254747547356125   T   T   T
 11.0972595200815949  5.7408711936395811  7.3333754325238880   T   T   T
  5.4105845665889900 14.2585676333845957  7.3254754119237653   T   T   T
 11.0972592155863996 14.2585678360653123  7.3333760897120444   T   T   T
 -0.0107157852685448  2.7768250471433022  3.0089768144915761   T   T   T
  5.6759588637288854  2.7768252498240193  3.0168774922798436   T   T   T
 -0.0107160897637373 11.2945216895689846  3.0089774716797382   T   T   T
  5.6759585592336848 11.2945218922497101  3.0168781494680057   T   T   T
 -0.1541406526139881  2.7768246436417869  8.1722337654440889   T   T   T
  5.5325339963834486  2.7768248463225014  8.1801344432323830   T   T   T
 -0.1541409571091806 11.2945212860674609  8.1722344226322559   T   T   T
  5.5325336918882382 11.2945214887481704  8.1801351004205483   T   T   T
  1.0180913582493452  7.6687940920197439  0.7938211850727735   T   T   T
  6.7047660072467901  7.6687942947004597  0.8017218628610492   T   T   T
  1.0180910537541525 16.1864907344453961  0.7938218422609359   T   T   T
  6.7047657027516001 16.1864909371261412  0.8017225200492111   T   T   T
  0.8746664909039035  7.6687936885182308  5.9570781360253449   T   T   T
  6.5613411399013444  7.6687938911989573  5.9649788138136195   T   T   T
  0.8746661864087095 16.1864903309438688  5.9570787932135039   T   T   T
  6.5613408354061500 16.1864905336246068  5.9649794710017856   T   T   T
  4.5252025949117165  0.8489023495839557  4.3773734332018330   T   T   T
 10.2118772439091448  0.8489025522646731  4.3852741109900988   T   T   T
  4.5252022904165221  9.3665989920096688  4.3773740903899947   T   T   T
 10.2118769394139512  9.3665991946903766  4.3852747681782649   T   T   T
  4.3817777275662690  0.8489019460824384  9.5406303841544009   T   T   T
 10.0684523765637106  0.8489021487631548  9.5485310619426844   T   T   T
  4.3817774230710755  9.3665985885081380  9.5406310413425555   T   T   T
 10.0684520720685171  9.3665987911888600  9.5485317191308425   T   T   T
  0.9463790161301733  5.1077506201631895  3.3754494629501748   T   T   T
  6.6330536651276146  5.1077508228439168  3.3833501407384525   T   T   T
  0.9463787116349806 13.6254472625889242  3.3754501201383373   T   T   T
  6.6330533606324247 13.6254474652696498  3.3833507979266138   T   T   T
  0.8029541487847295  5.1077502166616773  8.5387064139026823   T   T   T
  6.4896287977821698  5.1077504193423913  8.5466070916909977   T   T   T
  0.8029538442895380 13.6254468590874058  8.5387070710908528   T   T   T
  6.4896284932869772 13.6254470617681207  8.5466077488791630   T   T   T
  4.5969149370308759  3.4099458214405014  1.7957451553244270   T   T   T
 10.2835895860283095  3.4099460241212176  1.8036458331127041   T   T   T
  4.5969146325356869 11.9276424638662135  1.7957458125125878   T   T   T
 10.2835892815331036 11.9276426665469426  1.8036464903008642   T   T   T
  4.4534900696854445  3.4099454179389848  6.9590021062769924   T   T   T
 10.1401647186828701  3.4099456206196996  6.9669027840652689   T   T   T
  4.4534897651902456 11.9276420603647022  6.9590027634651532   T   T   T
 10.1401644141876819 11.9276422630454153  6.9669034412534288   T   T   T
  2.9992343106485762  7.4972077276875000  3.2067674615161756   T   T   T
  8.6859089596459498  7.4972079303682229  3.2146681393044481   T   T   T
  2.9992340061533862 16.0149043701131966  3.2067681187043360   T   T   T
  8.6859086551507758 16.0149045727938777  3.2146687964926124   T   T   T
  2.8558094433031393  7.4972073241859887  8.3700244124687142   T   T   T
  8.5424840923005281  7.4972075268667018  8.3779250902570119   T   T   T
  2.8558091388079467 16.0149039666116551  8.3700250696568830   T   T   T
  8.5424837878053363 16.0149041692923646  8.3779257474451807   T   T   T
  2.5440596425124906  1.0204887139161936  1.9644271567584290   T   T   T
  8.2307342915099344  1.0204889165969124  1.9723278345467048   T   T   T
  2.5440593380173011  9.5381853563419021  1.9644278139465885   T   T   T
  8.2307339870147018  9.5381855590226259  1.9723284917348667   T   T   T
  2.4006347751670400  1.0204883104146758  7.1276841077109827   T   T   T
  8.0873094241644878  1.0204885130953938  7.1355847854992689   T   T   T
  2.4006344706718505  9.5381849528403873  7.1276847648991462   T   T   T
  8.0873091196693139  9.5381851555211146  7.1355854426874288   T   T   T
  3.0709468236069370  5.2793371572981496  0.6251388149186996   T   T   T
  8.7576214726043400  5.2793373599788707  0.6330394927069750   T   T   T
  3.0709465191117520 13.7970337997238381  0.6251394721068616   T   T   T
  8.7576211681091500 13.7970340024045477  0.6330401498951364   T   T   T
  2.9275219562614976  5.2793367537966303  5.7883957658712690   T   T   T
  8.6141966052588810  5.2793369564773451  5.7962964436595454   T   T   T
  2.9275216517663023 13.7970333962223179  5.7883964230594405   T   T   T
  8.6141963007636821 13.7970335989030417  5.7962971008477142   T   T   T
  2.4723471295541311  3.2383592843055546  4.5460558033558938   T   T   T
  8.1590217785515691  3.2383594869862682  4.5539564811441773   T   T   T
  2.4723468250589371 11.7560559267312765  4.5460564605440501   T   T   T
  8.1590214740563809 11.7560561294119701  4.5539571383323407   T   T   T
  2.3289222622086836  3.2383588808040349  9.7093127543084741   T   T   T
  8.0155969112061349  3.2383590834847502  9.7172134320967558   T   T   T
  2.3289219577134932 11.7560555232297279  9.7093134114966340   T   T   T
  8.0155966067109556 11.7560557259104481  9.7172140892849157   T   T   T
  1.2961166808590330  0.6461801389665253  3.1633988906840558   T   T   T
  6.9827913298564663  0.6461803416472423  3.1712995684723313   T   T   T
  1.2961163763638406  9.1638767813922275  3.1633995478722179   T   T   T
  6.9827910253612702  9.1638769840729211  3.1713002256604916   T   T   T
  1.1526918135135829  0.6461797354650075  8.3266558416365637   T   T   T
  6.8393664625110215  0.6461799381457241  8.3345565194248739   T   T   T
  1.1526915090183920  9.1638763778906949  8.3266564988247289   T   T   T
  6.8393661580158316  9.1638765805714257  8.3345571766130302   T   T   T
  4.2471772723020278  7.8715163026371631  2.0077957275905538   T   T   T
  9.9338519212994587  7.8715165053178779  2.0156964053788284   T   T   T
  4.2471769678068325 16.3892129450628445  2.0077963847787150   T   T   T
  9.9338516168042581 16.3892131477435719  2.0156970625669883   T   T   T
  4.1037524049565937  7.8715158991356473  7.1710526785431146   T   T   T
  9.7904270539540086  7.8715161018163613  7.1789533563313990   T   T   T
  4.1037521004614081 16.3892125415613137  7.1710533357312709   T   T   T
  9.7904267494588240 16.3892127442420552  7.1789540135195535   T   T   T
  1.3678290084841593  3.6126679885176456  0.5817706440889635   T   T   T
  7.0545036574816109  3.6126681911983627  0.5896713218772388   T   T   T
  1.3678287039889667 12.1303646309433741  0.5817713012771252   T   T   T
  7.0545033529864201 12.1303648336241050  0.5896719790654010   T   T   T
  1.2244041411387137  3.6126675850161267  5.7450275950415177   T   T   T
  6.9110787901361466  3.6126677876968447  5.7529282728298101   T   T   T
  1.2244038366435221 12.1303642274418646  5.7450282522296741   T   T   T
  6.9110784856409646 12.1303644301225741  5.7529289300179682   T   T   T
  4.1754649446769054  4.9050284530860466  4.5894239741856451   T   T   T
  9.8621395936743212  4.9050286557667624  4.5973246519739215   T   T   T
  4.1754646401817155 13.4227250955117619  4.5894246313738059   T   T   T
  9.8621392891791242 13.4227252981924821  4.5973253091620823   T   T   T
  4.0320400773314686  4.9050280495845255  9.7526809251382289   T   T   T
  9.7187147263288782  4.9050282522652422  9.7605816029265036   T   T   T
  4.0320397728362787 13.4227246920102417  9.7526815823263853   T   T   T
  9.7187144218336972 13.4227248946909619  9.7605822601146581   T   T   T
  2.3640905983279485  7.3225906062226152  3.9606885973134633   T   T   T
  8.0507652473253959  7.3225908089033291  3.9685892751017424   T   T   T
  2.3640902938327564 15.8402872486483037  3.9606892545016255   T   T   T
  8.0507649428302077 15.8402874513290151  3.9685899322899045   T   T   T
  2.2206657309825033  7.3225902027210976  9.1239455482659881   T   T   T
  7.9073403799799378  7.3225904054018081  9.1318462260543090   T   T   T
  2.2206654264873111 15.8402868451467729  9.1239462054541658   T   T   T
  7.9073400754847540 15.8402870478274949  9.1318468832424706   T   T   T
  3.1792033548331204  1.1951058353810804  1.2105060209611467   T   T   T
  8.8658780038305043  1.1951060380618002  1.2184066987494209   T   T   T
  3.1792030503379292  9.7128024778067861  1.2105066781493077   T   T   T
  8.8658776993353179  9.7128026804875134  1.2184073559375832   T   T   T
  3.0357784874876743  1.1951054318795640  6.3737629719137088   T   T   T
  8.7224531364850506  1.1951056345602797  6.3816636497019896   T   T   T
  3.0357781829924870  9.7128020743052694  6.3737636291018713   T   T   T
  8.7224528319898624  9.7128022769859825  6.3816643068901451   T   T   T
  2.4358030988016983  5.4539541170136010  1.3790599776613557   T   T   T
  8.1224777477991559  5.4539543196943168  1.3869606554496345   T   T   T
  2.4358027943065110 13.9716507594393136  1.3790606348495162   T   T   T
  8.1224774433039570 13.9716509621200320  1.3869613126377960   T   T   T
  2.2923782314562562  5.4539537135120826  6.5423169286139293   T   T   T
  7.9790528804537120  5.4539539161928001  6.5502176064022013   T   T   T
  2.2923779269610645 13.9716503559378076  6.5423175858020830   T   T   T
  7.9790525759585194 13.9716505586185100  6.5502182635903639   T   T   T
  3.1074908543593778  3.0637423245900930  3.7921346406132517   T   T   T
  8.7941655033567763  3.0637425272708083  3.8000353184015259   T   T   T
  3.1074905498641812 11.5814389670157993  3.7921352978014125   T   T   T
  8.7941651988615721 11.5814391696964947  3.8000359755896866   T   T   T
  2.9640659870139263  3.0637419210885741  8.9553915915657836   T   T   T
  8.6507406360113137  3.0637421237692899  8.9632922693540849   T   T   T
  2.9640656825187297 11.5814385635142756  8.9553922487539506   T   T   T
  8.6507403315161309 11.5814387661949816  8.9632929265422483   T   T   T
