 N  H 
 1.0000000000000000
    20.0000000000000000    0.0000000000000000    0.0000000000000000
     0.0000000000000000   20.0000000000000000    0.0000000000000000
     0.0000000000000000    0.0000000000000000   20.0000000000000000
 N   H  
   1   3
Cartesian
  5.0692009330712828  5.0692105205493085  5.0692117228916942
  5.9090732107909387  5.3760161640031754  4.5842879102262426
  5.3760268474135477  4.5842991318808295  5.9090837686546713
  4.5843090087242295  5.9090941835666859  5.3760365982273930
