 C  O  N  H 
        1.0000000000
  10.457407663530535  -0.000015561204653   0.300052955611062
   0.000027683333873  18.542362379540059  -0.000003180812061
  -3.134089105344119   0.000008333938090  21.305523157303014
   72   72   72  216
 Direct
   0.111697431051111   0.029140936705416   0.087330361548475
   0.445030764384444   0.029140936705416   0.087330361548475
   0.778364097717777   0.029140936705416   0.087330361548475
   0.111697431051111   0.529140936705416   0.087330361548475
   0.445030764384444   0.529140936705416   0.087330361548475
   0.778364097717777   0.529140936705416   0.087330361548475
   0.111697431051111   0.029140936705416   0.420663694881808
   0.445030764384444   0.029140936705416   0.420663694881808
   0.778364097717777   0.029140936705416   0.420663694881808
   0.111697431051111   0.529140936705416   0.420663694881808
   0.445030764384444   0.529140936705416   0.420663694881808
   0.778364097717777   0.529140936705416   0.420663694881808
   0.111697431051111   0.029140936705416   0.753997028215142
   0.445030764384444   0.029140936705416   0.753997028215142
   0.778364097717777   0.029140936705416   0.753997028215142
   0.111697431051111   0.529140936705416   0.753997028215142
   0.445030764384444   0.529140936705416   0.753997028215142
   0.778364097717777   0.529140936705416   0.753997028215142
   0.221638268740068   0.470859063294586   0.246005489974879
   0.554971602073401   0.470859063294586   0.246005489974879
   0.888304935406734   0.470859063294586   0.246005489974879
   0.221638268740068   0.970859063294586   0.246005489974879
   0.554971602073401   0.970859063294586   0.246005489974879
   0.888304935406734   0.970859063294586   0.246005489974879
   0.221638268740068   0.470859063294586   0.579338823308213
   0.554971602073401   0.470859063294586   0.579338823308213
   0.888304935406734   0.470859063294586   0.579338823308213
   0.221638268740068   0.970859063294586   0.579338823308213
   0.554971602073401   0.970859063294586   0.579338823308213
   0.888304935406734   0.970859063294586   0.579338823308213
   0.221638268740068   0.470859063294586   0.912672156641546
   0.554971602073401   0.470859063294586   0.912672156641546
   0.888304935406734   0.470859063294586   0.912672156641546
   0.221638268740068   0.970859063294586   0.912672156641546
   0.554971602073401   0.970859063294586   0.912672156641546
   0.888304935406734   0.970859063294586   0.912672156641546
   0.054971602073401   0.279140936705419   0.079338823308212
   0.388304935406734   0.279140936705419   0.079338823308212
   0.721638268740067   0.279140936705419   0.079338823308212
   0.054971602073401   0.779140936705419   0.079338823308212
   0.388304935406734   0.779140936705419   0.079338823308212
   0.721638268740067   0.779140936705419   0.079338823308212
   0.054971602073401   0.279140936705419   0.412672156641545
   0.388304935406734   0.279140936705419   0.412672156641545
   0.721638268740067   0.279140936705419   0.412672156641545
   0.054971602073401   0.779140936705419   0.412672156641545
   0.388304935406734   0.779140936705419   0.412672156641545
   0.721638268740067   0.779140936705419   0.412672156641545
   0.054971602073401   0.279140936705419   0.746005489974878
   0.388304935406734   0.279140936705419   0.746005489974878
   0.721638268740067   0.279140936705419   0.746005489974878
   0.054971602073401   0.779140936705419   0.746005489974878
   0.388304935406734   0.779140936705419   0.746005489974878
   0.721638268740067   0.779140936705419   0.746005489974878
   0.278364097717775   0.220859063294584   0.253997028215142
   0.611697431051109   0.220859063294584   0.253997028215142
   0.945030764384442   0.220859063294584   0.253997028215142
   0.278364097717775   0.720859063294584   0.253997028215142
   0.611697431051109   0.720859063294584   0.253997028215142
   0.945030764384442   0.720859063294584   0.253997028215142
   0.278364097717775   0.220859063294584   0.587330361548475
   0.611697431051109   0.220859063294584   0.587330361548475
   0.945030764384442   0.220859063294584   0.587330361548475
   0.278364097717775   0.720859063294584   0.587330361548475
   0.611697431051109   0.720859063294584   0.587330361548475
   0.945030764384442   0.720859063294584   0.587330361548475
   0.278364097717775   0.220859063294584   0.920663694881808
   0.611697431051109   0.220859063294584   0.920663694881808
   0.945030764384442   0.220859063294584   0.920663694881808
   0.278364097717775   0.720859063294584   0.920663694881808
   0.611697431051109   0.720859063294584   0.920663694881808
   0.945030764384442   0.720859063294584   0.920663694881808
   0.160554659036875   0.467752652259371   0.083282123268135
   0.493887992370209   0.467752652259371   0.083282123268135
   0.827221325703542   0.467752652259371   0.083282123268135
   0.160554659036875   0.967752652259371   0.083282123268135
   0.493887992370209   0.967752652259371   0.083282123268135
   0.827221325703542   0.967752652259371   0.083282123268135
   0.160554659036875   0.467752652259371   0.416615456601468
   0.493887992370209   0.467752652259371   0.416615456601468
   0.827221325703542   0.467752652259371   0.416615456601468
   0.160554659036875   0.967752652259371   0.416615456601468
   0.493887992370209   0.967752652259371   0.416615456601468
   0.827221325703542   0.967752652259371   0.416615456601468
   0.160554659036875   0.467752652259371   0.749948789934801
   0.493887992370209   0.467752652259371   0.749948789934801
   0.827221325703542   0.467752652259371   0.749948789934801
   0.160554659036875   0.967752652259371   0.749948789934801
   0.493887992370209   0.967752652259371   0.749948789934801
   0.827221325703542   0.967752652259371   0.749948789934801
   0.172781040754302   0.032247347740630   0.250053728255219
   0.506114374087635   0.032247347740630   0.250053728255219
   0.839447707420968   0.032247347740630   0.250053728255219
   0.172781040754302   0.532247347740630   0.250053728255219
   0.506114374087635   0.532247347740630   0.250053728255219
   0.839447707420968   0.532247347740630   0.250053728255219
   0.172781040754302   0.032247347740630   0.583387061588552
   0.506114374087635   0.032247347740630   0.583387061588552
   0.839447707420968   0.032247347740630   0.583387061588552
   0.172781040754302   0.532247347740630   0.583387061588552
   0.506114374087635   0.532247347740630   0.583387061588552
   0.839447707420968   0.532247347740630   0.583387061588552
   0.172781040754302   0.032247347740630   0.916720394921886
   0.506114374087635   0.032247347740630   0.916720394921886
   0.839447707420968   0.032247347740630   0.916720394921886
   0.172781040754302   0.532247347740630   0.916720394921886
   0.506114374087635   0.532247347740630   0.916720394921886
   0.839447707420968   0.532247347740630   0.916720394921886
   0.006114374087636   0.217752652259371   0.083387061588553
   0.339447707420969   0.217752652259371   0.083387061588553
   0.672781040754302   0.217752652259371   0.083387061588553
   0.006114374087636   0.717752652259371   0.083387061588553
   0.339447707420969   0.717752652259371   0.083387061588553
   0.672781040754302   0.717752652259371   0.083387061588553
   0.006114374087636   0.217752652259371   0.416720394921886
   0.339447707420969   0.217752652259371   0.416720394921886
   0.672781040754302   0.217752652259371   0.416720394921886
   0.006114374087636   0.717752652259371   0.416720394921886
   0.339447707420969   0.717752652259371   0.416720394921886
   0.672781040754302   0.717752652259371   0.416720394921886
   0.006114374087636   0.217752652259371   0.750053728255219
   0.339447707420969   0.217752652259371   0.750053728255219
   0.672781040754302   0.217752652259371   0.750053728255219
   0.006114374087636   0.717752652259371   0.750053728255219
   0.339447707420969   0.717752652259371   0.750053728255219
   0.672781040754302   0.717752652259371   0.750053728255219
   0.327221325703542   0.282247347740632   0.249948789934802
   0.660554659036876   0.282247347740632   0.249948789934802
   0.993887992370209   0.282247347740632   0.249948789934802
   0.327221325703542   0.782247347740632   0.249948789934802
   0.660554659036876   0.782247347740632   0.249948789934802
   0.993887992370209   0.782247347740632   0.249948789934802
   0.327221325703542   0.282247347740632   0.583282123268135
   0.660554659036876   0.282247347740632   0.583282123268135
   0.993887992370209   0.282247347740632   0.583282123268135
   0.327221325703542   0.782247347740632   0.583282123268135
   0.660554659036876   0.782247347740632   0.583282123268135
   0.993887992370209   0.782247347740632   0.583282123268135
   0.327221325703542   0.282247347740632   0.916615456601469
   0.660554659036876   0.282247347740632   0.916615456601469
   0.993887992370209   0.282247347740632   0.916615456601469
   0.327221325703542   0.782247347740632   0.916615456601469
   0.660554659036876   0.782247347740632   0.916615456601469
   0.993887992370209   0.782247347740632   0.916615456601469
   0.094501039494861   0.077213456213601   0.040869902889193
   0.427834372828194   0.077213456213601   0.040869902889193
   0.761167706161528   0.077213456213601   0.040869902889193
   0.094501039494861   0.577213456213601   0.040869902889193
   0.427834372828194   0.577213456213601   0.040869902889193
   0.761167706161528   0.577213456213601   0.040869902889193
   0.094501039494861   0.077213456213601   0.374203236222526
   0.427834372828194   0.077213456213601   0.374203236222526
   0.761167706161528   0.077213456213601   0.374203236222526
   0.094501039494861   0.577213456213601   0.374203236222526
   0.427834372828194   0.577213456213601   0.374203236222526
   0.761167706161528   0.577213456213601   0.374203236222526
   0.094501039494861   0.077213456213601   0.707536569555859
   0.427834372828194   0.077213456213601   0.707536569555859
   0.761167706161528   0.077213456213601   0.707536569555859
   0.094501039494861   0.577213456213601   0.707536569555859
   0.427834372828194   0.577213456213601   0.707536569555859
   0.761167706161528   0.577213456213601   0.707536569555859
   0.238834660296316   0.422786543786403   0.292465948634161
   0.572167993629650   0.422786543786403   0.292465948634161
   0.905501326962983   0.422786543786403   0.292465948634161
   0.238834660296316   0.922786543786403   0.292465948634161
   0.572167993629650   0.922786543786403   0.292465948634161
   0.905501326962983   0.922786543786403   0.292465948634161
   0.238834660296316   0.422786543786403   0.625799281967494
   0.572167993629650   0.422786543786403   0.625799281967494
   0.905501326962983   0.422786543786403   0.625799281967494
   0.238834660296316   0.922786543786403   0.625799281967494
   0.572167993629650   0.922786543786403   0.625799281967494
   0.905501326962983   0.922786543786403   0.625799281967494
   0.238834660296316   0.422786543786403   0.959132615300828
   0.572167993629650   0.422786543786403   0.959132615300828
   0.905501326962983   0.422786543786403   0.959132615300828
   0.238834660296316   0.922786543786403   0.959132615300828
   0.572167993629650   0.922786543786403   0.959132615300828
   0.905501326962983   0.922786543786403   0.959132615300828
   0.072167993629650   0.327213456213605   0.125799281967494
   0.405501326962983   0.327213456213605   0.125799281967494
   0.738834660296317   0.327213456213605   0.125799281967494
   0.072167993629650   0.827213456213605   0.125799281967494
   0.405501326962983   0.827213456213605   0.125799281967494
   0.738834660296317   0.827213456213605   0.125799281967494
   0.072167993629650   0.327213456213605   0.459132615300828
   0.405501326962983   0.327213456213605   0.459132615300828
   0.738834660296317   0.327213456213605   0.459132615300828
   0.072167993629650   0.827213456213605   0.459132615300828
   0.405501326962983   0.827213456213605   0.459132615300828
   0.738834660296317   0.827213456213605   0.459132615300828
   0.072167993629650   0.327213456213605   0.792465948634161
   0.405501326962983   0.327213456213605   0.792465948634161
   0.738834660296317   0.327213456213605   0.792465948634161
   0.072167993629650   0.827213456213605   0.792465948634161
   0.405501326962983   0.827213456213605   0.792465948634161
   0.738834660296317   0.827213456213605   0.792465948634161
   0.261167706161526   0.172786543786400   0.207536569555860
   0.594501039494860   0.172786543786400   0.207536569555860
   0.927834372828193   0.172786543786400   0.207536569555860
   0.261167706161526   0.672786543786400   0.207536569555860
   0.594501039494860   0.672786543786400   0.207536569555860
   0.927834372828193   0.672786543786400   0.207536569555860
   0.261167706161526   0.172786543786400   0.540869902889193
   0.594501039494860   0.172786543786400   0.540869902889193
   0.927834372828193   0.172786543786400   0.540869902889193
   0.261167706161526   0.672786543786400   0.540869902889193
   0.594501039494860   0.672786543786400   0.540869902889193
   0.927834372828193   0.672786543786400   0.540869902889193
   0.261167706161526   0.172786543786400   0.874203236222526
   0.594501039494860   0.172786543786400   0.874203236222526
   0.927834372828193   0.172786543786400   0.874203236222526
   0.261167706161526   0.672786543786400   0.874203236222526
   0.594501039494860   0.672786543786400   0.874203236222526
   0.927834372828193   0.672786543786400   0.874203236222526
   0.059284858486553   0.127202484823229   0.049194354141535
   0.392618191819886   0.127202484823229   0.049194354141535
   0.725951525153219   0.127202484823229   0.049194354141535
   0.059284858486553   0.627202484823229   0.049194354141535
   0.392618191819886   0.627202484823229   0.049194354141535
   0.725951525153219   0.627202484823229   0.049194354141535
   0.059284858486553   0.127202484823229   0.382527687474868
   0.392618191819886   0.127202484823229   0.382527687474868
   0.725951525153219   0.127202484823229   0.382527687474868
   0.059284858486553   0.627202484823229   0.382527687474868
   0.392618191819886   0.627202484823229   0.382527687474868
   0.725951525153219   0.627202484823229   0.382527687474868
   0.059284858486553   0.127202484823229   0.715861020808202
   0.392618191819886   0.127202484823229   0.715861020808202
   0.725951525153219   0.127202484823229   0.715861020808202
   0.059284858486553   0.627202484823229   0.715861020808202
   0.392618191819886   0.627202484823229   0.715861020808202
   0.725951525153219   0.627202484823229   0.715861020808202
   0.274050841304624   0.372797515176774   0.284141497381819
   0.607384174637958   0.372797515176774   0.284141497381819
   0.940717507971291   0.372797515176774   0.284141497381819
   0.274050841304624   0.872797515176774   0.284141497381819
   0.607384174637958   0.872797515176774   0.284141497381819
   0.940717507971291   0.872797515176774   0.284141497381819
   0.274050841304624   0.372797515176774   0.617474830715152
   0.607384174637958   0.372797515176774   0.617474830715152
   0.940717507971291   0.372797515176774   0.617474830715152
   0.274050841304624   0.872797515176774   0.617474830715152
   0.607384174637958   0.872797515176774   0.617474830715152
   0.940717507971291   0.872797515176774   0.617474830715152
   0.274050841304624   0.372797515176774   0.950808164048485
   0.607384174637958   0.372797515176774   0.950808164048485
   0.940717507971291   0.372797515176774   0.950808164048485
   0.274050841304624   0.872797515176774   0.950808164048485
   0.607384174637958   0.872797515176774   0.950808164048485
   0.940717507971291   0.872797515176774   0.950808164048485
   0.107384174637959   0.377202484823232   0.117474830715152
   0.440717507971292   0.377202484823232   0.117474830715152
   0.774050841304626   0.377202484823232   0.117474830715152
   0.107384174637959   0.877202484823232   0.117474830715152
   0.440717507971292   0.877202484823232   0.117474830715152
   0.774050841304626   0.877202484823232   0.117474830715152
   0.107384174637959   0.377202484823232   0.450808164048486
   0.440717507971292   0.377202484823232   0.450808164048486
   0.774050841304626   0.377202484823232   0.450808164048486
   0.107384174637959   0.877202484823232   0.450808164048486
   0.440717507971292   0.877202484823232   0.450808164048486
   0.774050841304626   0.877202484823232   0.450808164048486
   0.107384174637959   0.377202484823232   0.784141497381819
   0.440717507971292   0.377202484823232   0.784141497381819
   0.774050841304626   0.377202484823232   0.784141497381819
   0.107384174637959   0.877202484823232   0.784141497381819
   0.440717507971292   0.877202484823232   0.784141497381819
   0.774050841304626   0.877202484823232   0.784141497381819
   0.225951525153220   0.122797515176772   0.215861020808202
   0.559284858486553   0.122797515176772   0.215861020808202
   0.892618191819887   0.122797515176772   0.215861020808202
   0.225951525153220   0.622797515176772   0.215861020808202
   0.559284858486553   0.622797515176772   0.215861020808202
   0.892618191819887   0.622797515176772   0.215861020808202
   0.225951525153220   0.122797515176772   0.549194354141535
   0.559284858486553   0.122797515176772   0.549194354141535
   0.892618191819887   0.122797515176772   0.549194354141535
   0.225951525153220   0.622797515176772   0.549194354141535
   0.559284858486553   0.622797515176772   0.549194354141535
   0.892618191819887   0.622797515176772   0.549194354141535
   0.225951525153220   0.122797515176772   0.882527687474868
   0.559284858486553   0.122797515176772   0.882527687474868
   0.892618191819887   0.122797515176772   0.882527687474868
   0.225951525153220   0.622797515176772   0.882527687474868
   0.559284858486553   0.622797515176772   0.882527687474868
   0.892618191819887   0.622797515176772   0.882527687474868
   0.119909608135362   0.064605149784721   0.331018222610203
   0.453242941468695   0.064605149784721   0.331018222610203
   0.786576274802029   0.064605149784721   0.331018222610203
   0.119909608135362   0.564605149784721   0.331018222610203
   0.453242941468695   0.564605149784721   0.331018222610203
   0.786576274802029   0.564605149784721   0.331018222610203
   0.119909608135362   0.064605149784721   0.664351555943537
   0.453242941468695   0.064605149784721   0.664351555943537
   0.786576274802029   0.064605149784721   0.664351555943537
   0.119909608135362   0.564605149784721   0.664351555943537
   0.453242941468695   0.564605149784721   0.664351555943537
   0.786576274802029   0.564605149784721   0.664351555943537
   0.119909608135362   0.064605149784721   0.997684889276870
   0.453242941468695   0.064605149784721   0.997684889276870
   0.786576274802029   0.064605149784721   0.997684889276870
   0.119909608135362   0.564605149784721   0.997684889276870
   0.453242941468695   0.564605149784721   0.997684889276870
   0.786576274802029   0.564605149784721   0.997684889276870
   0.213426091655814   0.435394850215281   0.002317628913150
   0.546759424989148   0.435394850215281   0.002317628913150
   0.880092758322481   0.435394850215281   0.002317628913150
   0.213426091655814   0.935394850215281   0.002317628913150
   0.546759424989148   0.935394850215281   0.002317628913150
   0.880092758322481   0.935394850215281   0.002317628913150
   0.213426091655814   0.435394850215281   0.335650962246483
   0.546759424989148   0.435394850215281   0.335650962246483
   0.880092758322481   0.435394850215281   0.335650962246483
   0.213426091655814   0.935394850215281   0.335650962246483
   0.546759424989148   0.935394850215281   0.335650962246483
   0.880092758322481   0.935394850215281   0.335650962246483
   0.213426091655814   0.435394850215281   0.668984295579817
   0.546759424989148   0.435394850215281   0.668984295579817
   0.880092758322481   0.435394850215281   0.668984295579817
   0.213426091655814   0.935394850215281   0.668984295579817
   0.546759424989148   0.935394850215281   0.668984295579817
   0.880092758322481   0.935394850215281   0.668984295579817
   0.046759424989149   0.314605149784722   0.168984295579817
   0.380092758322482   0.314605149784722   0.168984295579817
   0.713426091655816   0.314605149784722   0.168984295579817
   0.046759424989149   0.814605149784722   0.168984295579817
   0.380092758322482   0.814605149784722   0.168984295579817
   0.713426091655816   0.814605149784722   0.168984295579817
   0.046759424989149   0.314605149784722   0.502317628913150
   0.380092758322482   0.314605149784722   0.502317628913150
   0.713426091655816   0.314605149784722   0.502317628913150
   0.046759424989149   0.814605149784722   0.502317628913150
   0.380092758322482   0.814605149784722   0.502317628913150
   0.713426091655816   0.814605149784722   0.502317628913150
   0.046759424989149   0.314605149784722   0.835650962246483
   0.380092758322482   0.314605149784722   0.835650962246483
   0.713426091655816   0.314605149784722   0.835650962246483
   0.046759424989149   0.814605149784722   0.835650962246483
   0.380092758322482   0.814605149784722   0.835650962246483
   0.713426091655816   0.814605149784722   0.835650962246483
   0.286576274802028   0.185394850215280   0.164351555943537
   0.619909608135362   0.185394850215280   0.164351555943537
   0.953242941468695   0.185394850215280   0.164351555943537
   0.286576274802028   0.685394850215280   0.164351555943537
   0.619909608135362   0.685394850215280   0.164351555943537
   0.953242941468695   0.685394850215280   0.164351555943537
   0.286576274802028   0.185394850215280   0.497684889276870
   0.619909608135362   0.185394850215280   0.497684889276870
   0.953242941468695   0.185394850215280   0.497684889276870
   0.286576274802028   0.685394850215280   0.497684889276870
   0.619909608135362   0.685394850215280   0.497684889276870
   0.953242941468695   0.685394850215280   0.497684889276870
   0.286576274802028   0.185394850215280   0.831018222610204
   0.619909608135362   0.185394850215280   0.831018222610204
   0.953242941468695   0.185394850215280   0.831018222610204
   0.286576274802028   0.685394850215280   0.831018222610204
   0.619909608135362   0.685394850215280   0.831018222610204
   0.953242941468695   0.685394850215280   0.831018222610204
   0.080697308444348   0.047588388718248   0.131720989968234
   0.414030641777682   0.047588388718248   0.131720989968234
   0.747363975111015   0.047588388718248   0.131720989968234
   0.080697308444348   0.547588388718248   0.131720989968234
   0.414030641777682   0.547588388718248   0.131720989968234
   0.747363975111015   0.547588388718248   0.131720989968234
   0.080697308444348   0.047588388718248   0.465054323301567
   0.414030641777682   0.047588388718248   0.465054323301567
   0.747363975111015   0.047588388718248   0.465054323301567
   0.080697308444348   0.547588388718248   0.465054323301567
   0.414030641777682   0.547588388718248   0.465054323301567
   0.747363975111015   0.547588388718248   0.465054323301567
   0.080697308444348   0.047588388718248   0.798387656634900
   0.414030641777682   0.047588388718248   0.798387656634900
   0.747363975111015   0.047588388718248   0.798387656634900
   0.080697308444348   0.547588388718248   0.798387656634900
   0.414030641777682   0.547588388718248   0.798387656634900
   0.747363975111015   0.547588388718248   0.798387656634900
   0.252638391346830   0.452411611281754   0.201614861555120
   0.585971724680163   0.452411611281754   0.201614861555120
   0.919305058013496   0.452411611281754   0.201614861555120
   0.252638391346830   0.952411611281754   0.201614861555120
   0.585971724680163   0.952411611281754   0.201614861555120
   0.919305058013496   0.952411611281754   0.201614861555120
   0.252638391346830   0.452411611281754   0.534948194888454
   0.585971724680163   0.452411611281754   0.534948194888454
   0.919305058013496   0.452411611281754   0.534948194888454
   0.252638391346830   0.952411611281754   0.534948194888454
   0.585971724680163   0.952411611281754   0.534948194888454
   0.919305058013496   0.952411611281754   0.534948194888454
   0.252638391346830   0.452411611281754   0.868281528221787
   0.585971724680163   0.452411611281754   0.868281528221787
   0.919305058013496   0.452411611281754   0.868281528221787
   0.252638391346830   0.952411611281754   0.868281528221787
   0.585971724680163   0.952411611281754   0.868281528221787
   0.919305058013496   0.952411611281754   0.868281528221787
   0.085971724680163   0.297588388718251   0.034948194888453
   0.419305058013496   0.297588388718251   0.034948194888453
   0.752638391346830   0.297588388718251   0.034948194888453
   0.085971724680163   0.797588388718251   0.034948194888453
   0.419305058013496   0.797588388718251   0.034948194888453
   0.752638391346830   0.797588388718251   0.034948194888453
   0.085971724680163   0.297588388718251   0.368281528221787
   0.419305058013496   0.297588388718251   0.368281528221787
   0.752638391346830   0.297588388718251   0.368281528221787
   0.085971724680163   0.797588388718251   0.368281528221787
   0.419305058013496   0.797588388718251   0.368281528221787
   0.752638391346830   0.797588388718251   0.368281528221787
   0.085971724680163   0.297588388718251   0.701614861555120
   0.419305058013496   0.297588388718251   0.701614861555120
   0.752638391346830   0.297588388718251   0.701614861555120
   0.085971724680163   0.797588388718251   0.701614861555120
   0.419305058013496   0.797588388718251   0.701614861555120
   0.752638391346830   0.797588388718251   0.701614861555120
   0.247363975111015   0.202411611281754   0.298387656634900
   0.580697308444348   0.202411611281754   0.298387656634900
   0.914030641777681   0.202411611281754   0.298387656634900
   0.247363975111015   0.702411611281754   0.298387656634900
   0.580697308444348   0.702411611281754   0.298387656634900
   0.914030641777681   0.702411611281754   0.298387656634900
   0.247363975111015   0.202411611281754   0.631720989968233
   0.580697308444348   0.202411611281754   0.631720989968233
   0.914030641777681   0.202411611281754   0.631720989968233
   0.247363975111015   0.702411611281754   0.631720989968233
   0.580697308444348   0.702411611281754   0.631720989968233
   0.914030641777681   0.702411611281754   0.631720989968233
   0.247363975111015   0.202411611281754   0.965054323301567
   0.580697308444348   0.202411611281754   0.965054323301567
   0.914030641777681   0.202411611281754   0.965054323301567
   0.247363975111015   0.702411611281754   0.965054323301567
   0.580697308444348   0.702411611281754   0.965054323301567
   0.914030641777681   0.702411611281754   0.965054323301567
