 C  H  O 
 1.0000000000000000
     6.6500000000000004    0.0000000000000000    0.0000000000000000
     0.0000000000000000   12.4199999999999999    0.0000000000000000
    -1.1717000000000000    0.0000000000000000    6.7693399999999997
 C   H   O  
  24  32   8
Cartesian
  2.3394308890638609  1.0458611551525492  3.0275636160397204
  3.1388731330661486  4.1508359493937919  3.7417384743059157
  3.1413792815699777  1.0538153498689800  1.7413569437619287
  2.3369154180362997  4.1588353219857614  5.0279563582784004
  2.2986779301363689  1.3334628170379532  0.4887711033904503
  3.1795995143153530  4.4384903468585906  6.2805512948313593
  1.0833249785420833  0.4353629290021043  0.4080550571268834
  4.3949551202841670  3.5403844766615800  6.3612849428731151
  0.3764989423539113  0.1508609606184683  1.7190770254587018
  5.1018056610680116  3.2558776647931129  5.0502651756090762
  0.8373003116498373  1.0501360814253988  2.8784237099069241
  4.6410094625974718  4.1551284461853895  3.8908975678438087
  2.3394308890638609  7.2558611551525489  3.0275636160397204
  3.1388731330661486 10.3608359493937918  3.7417384743059157
  3.1413792815699777  7.2638153498689793  1.7413569437619287
  2.3369154180362997 10.3688353219857632  5.0279563582784004
  2.2986779301363689  7.5434628170379536  0.4887711033904503
  3.1795995143153530 10.6484903468585888  6.2805512948313593
  1.0833249785420833  6.6453629290021041  0.4080550571268834
  4.3949551202841670  9.7503844766615799  6.3612849428731151
  0.3764989423539113  6.3608609606184681  1.7190770254587018
  5.1018056610680116  9.4658776647931120  5.0502651756090762
  0.8373003116498373  7.2601360814253990  2.8784237099069241
  4.6410094625974718 10.3651284461853894  3.8908975678438087
  3.9608916410638026  1.7802794344424837  1.8368382846235154
  1.5174051317234294  4.8852981553279511  4.9324580090227190
  3.6038920223527970  0.0558225264689993  1.6721458913648826
  1.8743858045228199  3.1608504113718099  5.0971724863090007
  1.9093220291043651  2.3659838603368062  0.5462043513489488
  3.5689229529853725  5.4710227973335401  6.2231366377723862
  1.7147699902738724  1.2349637988458111  6.3361909653225910
  3.7635117889290681  4.3399572394564254  0.4331296522027268
  0.5754470955745442  5.3021011509994400  1.9571201107926646
  4.9028663807013837  2.1971134720512859  4.8122545623545294
  5.9459450597270429  0.2448857670769596  1.5532399952010481
 -0.4676465825996566  3.3499178367659672  5.2161088029917533
  0.5543185721942908  2.0948336262835761  2.6517975742206299
  4.9239786227408544  5.1998286641673701  4.1175332831491618
  0.3711088463326758  0.7690452607815649  3.8322153209007994
  5.1072200679799629  3.8740327590483137  2.9371001553921365
  3.9608916410638026  7.9902794344424830  1.8368382846235154
  1.5174051317234294 11.0952981553279528  4.9324580090227190
  3.6038920223527970  6.2658225264689982  1.6721458913648826
  1.8743858045228199  9.3708504113718103  5.0971724863090007
  1.9093220291043651  8.5759838603368053  0.5462043513489488
  3.5689229529853725 11.6810227973335383  6.2231366377723862
  1.7147699902738724  7.4449637988458104  6.3361909653225910
  3.7635117889290681 10.5499572394564254  0.4331296522027268
  0.5754470955745442 11.5121011509994400  1.9571201107926646
  4.9028663807013837  8.4071134720512859  4.8122545623545294
  5.9459450597270429  6.4548857670769593  1.5532399952010481
 -0.4676465825996566  9.5599178367659672  5.2161088029917533
  0.5543185721942908  8.3048336262835765  2.6517975742206299
  4.9239786227408544 11.4098286641673710  4.1175332831491618
  0.3711088463326758  6.9790452607815636  3.8322153209007994
  5.1072200679799629 10.0840327590483145  2.9371001553921365
  2.8974455131565855  1.0271128973609058  4.1224546242754387
  2.5808594407381258  4.1320236309490239  2.6468326153416917
 -0.4754105240503514  6.1541774735310000  6.1212611957589864
  5.9536438521067883  3.0491585325824211  0.6480773120444283
  2.8974455131565855  7.2371128973609045  4.1224546242754387
  2.5808594407381258 10.3420236309490239  2.6468326153416917
 -0.4754105240503514 12.3641774735310008  6.1212611957589864
  5.9536438521067883  9.2591585325824202  0.6480773120444283
