 C  H  N  O 
 1.0000000000000000
    25.0000000000000000    0.0000000000000000    0.0000000000000000
     0.0000000000000000   25.0000000000000000    0.0000000000000000
     0.0000000000000000    0.0000000000000000   25.0000000000000000
 C   H   N   O  
   4   5   3   1
Cartesian
 11.2478599999999993 12.7898549999999993 13.1407850000000010
 13.1799499999999998 11.8194450000000000 12.2526849999999996
 13.7146200000000000 13.0730450000000005 11.8032749999999993
 12.9573000000000000 14.1748949999999994 12.0541450000000001
 11.1884899999999998 14.8531849999999999 12.8945749999999997
 13.5282200000000010  9.8212949999999992 12.4284750000000006
 14.8316200000000009 10.7031550000000006 11.6871150000000004
 14.6644500000000004 13.1472550000000012 11.2851850000000002
 13.2550899999999992 15.1787050000000008 11.7623050000000013
 11.7713299999999990 14.0471749999999993 12.6943350000000006
 12.0230500000000013 11.6903150000000000 12.8823550000000004
 13.8756400000000006 10.6741449999999993 12.0088949999999990
 10.1683799999999991 12.7828350000000004 13.7148150000000015
