 C  O 
        1.0000000000
  16.815823424995074   0.000000000000000   0.000000000000000
   0.000000000000000  16.815823424995074   0.000000000000000
   0.000000000000000   0.000000000000000  16.815823424995074
  108  216
 Direct
   0.019995926808265   0.019995923378208   0.019995923204370
   0.353329260141599   0.019995923378208   0.019995923204370
   0.686662593474932   0.019995923378208   0.019995923204370
   0.019995926808265   0.353329256711541   0.019995923204370
   0.353329260141599   0.353329256711541   0.019995923204370
   0.686662593474932   0.353329256711541   0.019995923204370
   0.019995926808265   0.686662590044875   0.019995923204370
   0.353329260141599   0.686662590044875   0.019995923204370
   0.686662593474932   0.686662590044875   0.019995923204370
   0.019995926808265   0.019995923378208   0.353329256537704
   0.353329260141599   0.019995923378208   0.353329256537704
   0.686662593474932   0.019995923378208   0.353329256537704
   0.019995926808265   0.353329256711541   0.353329256537704
   0.353329260141599   0.353329256711541   0.353329256537704
   0.686662593474932   0.353329256711541   0.353329256537704
   0.019995926808265   0.686662590044875   0.353329256537704
   0.353329260141599   0.686662590044875   0.353329256537704
   0.686662593474932   0.686662590044875   0.353329256537704
   0.019995926808265   0.019995923378208   0.686662589871037
   0.353329260141599   0.019995923378208   0.686662589871037
   0.686662593474932   0.019995923378208   0.686662589871037
   0.019995926808265   0.353329256711541   0.686662589871037
   0.353329260141599   0.353329256711541   0.686662589871037
   0.686662593474932   0.353329256711541   0.686662589871037
   0.019995926808265   0.686662590044875   0.686662589871037
   0.353329260141599   0.686662590044875   0.686662589871037
   0.686662593474932   0.686662590044875   0.686662589871037
   0.186662592047648   0.019995922440391   0.186662588413765
   0.519995925380981   0.019995922440391   0.186662588413765
   0.853329258714315   0.019995922440391   0.186662588413765
   0.186662592047648   0.353329255773724   0.186662588413765
   0.519995925380981   0.353329255773724   0.186662588413765
   0.853329258714315   0.353329255773724   0.186662588413765
   0.186662592047648   0.686662589107057   0.186662588413765
   0.519995925380981   0.686662589107057   0.186662588413765
   0.853329258714315   0.686662589107057   0.186662588413765
   0.186662592047648   0.019995922440391   0.519995921747099
   0.519995925380981   0.019995922440391   0.519995921747099
   0.853329258714315   0.019995922440391   0.519995921747099
   0.186662592047648   0.353329255773724   0.519995921747099
   0.519995925380981   0.353329255773724   0.519995921747099
   0.853329258714315   0.353329255773724   0.519995921747099
   0.186662592047648   0.686662589107057   0.519995921747099
   0.519995925380981   0.686662589107057   0.519995921747099
   0.853329258714315   0.686662589107057   0.519995921747099
   0.186662592047648   0.019995922440391   0.853329255080432
   0.519995925380981   0.019995922440391   0.853329255080432
   0.853329258714315   0.019995922440391   0.853329255080432
   0.186662592047648   0.353329255773724   0.853329255080432
   0.519995925380981   0.353329255773724   0.853329255080432
   0.853329258714315   0.353329255773724   0.853329255080432
   0.186662592047648   0.686662589107057   0.853329255080432
   0.519995925380981   0.686662589107057   0.853329255080432
   0.853329258714315   0.686662589107057   0.853329255080432
   0.019995925628376   0.186662588861346   0.186662589086938
   0.353329258961710   0.186662588861346   0.186662589086938
   0.686662592295043   0.186662588861346   0.186662589086938
   0.019995925628376   0.519995922194679   0.186662589086938
   0.353329258961710   0.519995922194679   0.186662589086938
   0.686662592295043   0.519995922194679   0.186662589086938
   0.019995925628376   0.853329255528013   0.186662589086938
   0.353329258961710   0.853329255528013   0.186662589086938
   0.686662592295043   0.853329255528013   0.186662589086938
   0.019995925628376   0.186662588861346   0.519995922420271
   0.353329258961710   0.186662588861346   0.519995922420271
   0.686662592295043   0.186662588861346   0.519995922420271
   0.019995925628376   0.519995922194679   0.519995922420271
   0.353329258961710   0.519995922194679   0.519995922420271
   0.686662592295043   0.519995922194679   0.519995922420271
   0.019995925628376   0.853329255528013   0.519995922420271
   0.353329258961710   0.853329255528013   0.519995922420271
   0.686662592295043   0.853329255528013   0.519995922420271
   0.019995925628376   0.186662588861346   0.853329255753604
   0.353329258961710   0.186662588861346   0.853329255753604
   0.686662592295043   0.186662588861346   0.853329255753604
   0.019995925628376   0.519995922194679   0.853329255753604
   0.353329258961710   0.519995922194679   0.853329255753604
   0.686662592295043   0.519995922194679   0.853329255753604
   0.019995925628376   0.853329255528013   0.853329255753604
   0.353329258961710   0.853329255528013   0.853329255753604
   0.686662592295043   0.853329255528013   0.853329255753604
   0.186662591602317   0.186662589444694   0.019995922985103
   0.519995924935650   0.186662589444694   0.019995922985103
   0.853329258268984   0.186662589444694   0.019995922985103
   0.186662591602317   0.519995922778027   0.019995922985103
   0.519995924935650   0.519995922778027   0.019995922985103
   0.853329258268984   0.519995922778027   0.019995922985103
   0.186662591602317   0.853329256111360   0.019995922985103
   0.519995924935650   0.853329256111360   0.019995922985103
   0.853329258268984   0.853329256111360   0.019995922985103
   0.186662591602317   0.186662589444694   0.353329256318437
   0.519995924935650   0.186662589444694   0.353329256318437
   0.853329258268984   0.186662589444694   0.353329256318437
   0.186662591602317   0.519995922778027   0.353329256318437
   0.519995924935650   0.519995922778027   0.353329256318437
   0.853329258268984   0.519995922778027   0.353329256318437
   0.186662591602317   0.853329256111360   0.353329256318437
   0.519995924935650   0.853329256111360   0.353329256318437
   0.853329258268984   0.853329256111360   0.353329256318437
   0.186662591602317   0.186662589444694   0.686662589651770
   0.519995924935650   0.186662589444694   0.686662589651770
   0.853329258268984   0.186662589444694   0.686662589651770
   0.186662591602317   0.519995922778027   0.686662589651770
   0.519995924935650   0.519995922778027   0.686662589651770
   0.853329258268984   0.519995922778027   0.686662589651770
   0.186662591602317   0.853329256111360   0.686662589651770
   0.519995924935650   0.853329256111360   0.686662589651770
   0.853329258268984   0.853329256111360   0.686662589651770
   0.060159104815282   0.060159099049552   0.060159100783007
   0.393492438148615   0.060159099049552   0.060159100783007
   0.726825771481948   0.060159099049552   0.060159100783007
   0.060159104815282   0.393492432382885   0.060159100783007
   0.393492438148615   0.393492432382885   0.060159100783007
   0.726825771481948   0.393492432382885   0.060159100783007
   0.060159104815282   0.726825765716218   0.060159100783007
   0.393492438148615   0.726825765716218   0.060159100783007
   0.726825771481948   0.726825765716218   0.060159100783007
   0.060159104815282   0.060159099049552   0.393492434116340
   0.393492438148615   0.060159099049552   0.393492434116340
   0.726825771481948   0.060159099049552   0.393492434116340
   0.060159104815282   0.393492432382885   0.393492434116340
   0.393492438148615   0.393492432382885   0.393492434116340
   0.726825771481948   0.393492432382885   0.393492434116340
   0.060159104815282   0.726825765716218   0.393492434116340
   0.393492438148615   0.726825765716218   0.393492434116340
   0.726825771481948   0.726825765716218   0.393492434116340
   0.060159104815282   0.060159099049552   0.726825767449674
   0.393492438148615   0.060159099049552   0.726825767449674
   0.726825771481948   0.060159099049552   0.726825767449674
   0.060159104815282   0.393492432382885   0.726825767449674
   0.393492438148615   0.393492432382885   0.726825767449674
   0.726825771481948   0.393492432382885   0.726825767449674
   0.060159104815282   0.726825765716218   0.726825767449674
   0.393492438148615   0.726825765716218   0.726825767449674
   0.726825771481948   0.726825765716218   0.726825767449674
   0.313166081127680   0.313166081447119   0.313166079611896
   0.646499414461014   0.313166081447119   0.313166079611896
   0.979832747794347   0.313166081447119   0.313166079611896
   0.313166081127680   0.646499414780453   0.313166079611896
   0.646499414461014   0.646499414780453   0.313166079611896
   0.979832747794347   0.646499414780453   0.313166079611896
   0.313166081127680   0.979832748113786   0.313166079611896
   0.646499414461014   0.979832748113786   0.313166079611896
   0.979832747794347   0.979832748113786   0.313166079611896
   0.313166081127680   0.313166081447119   0.646499412945229
   0.646499414461014   0.313166081447119   0.646499412945229
   0.979832747794347   0.313166081447119   0.646499412945229
   0.313166081127680   0.646499414780453   0.646499412945229
   0.646499414461014   0.646499414780453   0.646499412945229
   0.979832747794347   0.646499414780453   0.646499412945229
   0.313166081127680   0.979832748113786   0.646499412945229
   0.646499414461014   0.979832748113786   0.646499412945229
   0.979832747794347   0.979832748113786   0.646499412945229
   0.313166081127680   0.313166081447119   0.979832746278563
   0.646499414461014   0.313166081447119   0.979832746278563
   0.979832747794347   0.313166081447119   0.979832746278563
   0.313166081127680   0.646499414780453   0.979832746278563
   0.646499414461014   0.646499414780453   0.979832746278563
   0.979832747794347   0.646499414780453   0.979832746278563
   0.313166081127680   0.979832748113786   0.979832746278563
   0.646499414461014   0.979832748113786   0.979832746278563
   0.979832747794347   0.979832748113786   0.979832746278563
   0.146499414613004   0.313166082088113   0.226825768534392
   0.479832747946337   0.313166082088113   0.226825768534392
   0.813166081279670   0.313166082088113   0.226825768534392
   0.146499414613004   0.646499415421447   0.226825768534392
   0.479832747946337   0.646499415421447   0.226825768534392
   0.813166081279670   0.646499415421447   0.226825768534392
   0.146499414613004   0.979832748754780   0.226825768534392
   0.479832747946337   0.979832748754780   0.226825768534392
   0.813166081279670   0.979832748754780   0.226825768534392
   0.146499414613004   0.313166082088113   0.560159101867725
   0.479832747946337   0.313166082088113   0.560159101867725
   0.813166081279670   0.313166082088113   0.560159101867725
   0.146499414613004   0.646499415421447   0.560159101867725
   0.479832747946337   0.646499415421447   0.560159101867725
   0.813166081279670   0.646499415421447   0.560159101867725
   0.146499414613004   0.979832748754780   0.560159101867725
   0.479832747946337   0.979832748754780   0.560159101867725
   0.813166081279670   0.979832748754780   0.560159101867725
   0.146499414613004   0.313166082088113   0.893492435201059
   0.479832747946337   0.313166082088113   0.893492435201059
   0.813166081279670   0.313166082088113   0.893492435201059
   0.146499414613004   0.646499415421447   0.893492435201059
   0.479832747946337   0.646499415421447   0.893492435201059
   0.813166081279670   0.646499415421447   0.893492435201059
   0.146499414613004   0.979832748754780   0.893492435201059
   0.479832747946337   0.979832748754780   0.893492435201059
   0.813166081279670   0.979832748754780   0.893492435201059
   0.226825768880174   0.060159098299517   0.146499409895077
   0.560159102213507   0.060159098299517   0.146499409895077
   0.893492435546840   0.060159098299517   0.146499409895077
   0.226825768880174   0.393492431632851   0.146499409895077
   0.560159102213507   0.393492431632851   0.146499409895077
   0.893492435546840   0.393492431632851   0.146499409895077
   0.226825768880174   0.726825764966184   0.146499409895077
   0.560159102213507   0.726825764966184   0.146499409895077
   0.893492435546840   0.726825764966184   0.146499409895077
   0.226825768880174   0.060159098299517   0.479832743228410
   0.560159102213507   0.060159098299517   0.479832743228410
   0.893492435546840   0.060159098299517   0.479832743228410
   0.226825768880174   0.393492431632851   0.479832743228410
   0.560159102213507   0.393492431632851   0.479832743228410
   0.893492435546840   0.393492431632851   0.479832743228410
   0.226825768880174   0.726825764966184   0.479832743228410
   0.560159102213507   0.726825764966184   0.479832743228410
   0.893492435546840   0.726825764966184   0.479832743228410
   0.226825768880174   0.060159098299517   0.813166076561744
   0.560159102213507   0.060159098299517   0.813166076561744
   0.893492435546840   0.060159098299517   0.813166076561744
   0.226825768880174   0.393492431632851   0.813166076561744
   0.560159102213507   0.393492431632851   0.813166076561744
   0.893492435546840   0.393492431632851   0.813166076561744
   0.226825768880174   0.726825764966184   0.813166076561744
   0.560159102213507   0.726825764966184   0.813166076561744
   0.893492435546840   0.726825764966184   0.813166076561744
   0.313166082482867   0.226825765358645   0.146499410820909
   0.646499415816200   0.226825765358645   0.146499410820909
   0.979832749149533   0.226825765358645   0.146499410820909
   0.313166082482867   0.560159098691978   0.146499410820909
   0.646499415816200   0.560159098691978   0.146499410820909
   0.979832749149533   0.560159098691978   0.146499410820909
   0.313166082482867   0.893492432025312   0.146499410820909
   0.646499415816200   0.893492432025312   0.146499410820909
   0.979832749149533   0.893492432025312   0.146499410820909
   0.313166082482867   0.226825765358645   0.479832744154243
   0.646499415816200   0.226825765358645   0.479832744154243
   0.979832749149533   0.226825765358645   0.479832744154243
   0.313166082482867   0.560159098691978   0.479832744154243
   0.646499415816200   0.560159098691978   0.479832744154243
   0.979832749149533   0.560159098691978   0.479832744154243
   0.313166082482867   0.893492432025312   0.479832744154243
   0.646499415816200   0.893492432025312   0.479832744154243
   0.979832749149533   0.893492432025312   0.479832744154243
   0.313166082482867   0.226825765358645   0.813166077487576
   0.646499415816200   0.226825765358645   0.813166077487576
   0.979832749149533   0.226825765358645   0.813166077487576
   0.313166082482867   0.560159098691978   0.813166077487576
   0.646499415816200   0.560159098691978   0.813166077487576
   0.979832749149533   0.560159098691978   0.813166077487576
   0.313166082482867   0.893492432025312   0.813166077487576
   0.646499415816200   0.893492432025312   0.813166077487576
   0.979832749149533   0.893492432025312   0.813166077487576
   0.060159103220862   0.146499413271319   0.226825767121413
   0.393492436554195   0.146499413271319   0.226825767121413
   0.726825769887529   0.146499413271319   0.226825767121413
   0.060159103220862   0.479832746604653   0.226825767121413
   0.393492436554195   0.479832746604653   0.226825767121413
   0.726825769887529   0.479832746604653   0.226825767121413
   0.060159103220862   0.813166079937986   0.226825767121413
   0.393492436554195   0.813166079937986   0.226825767121413
   0.726825769887529   0.813166079937986   0.226825767121413
   0.060159103220862   0.146499413271319   0.560159100454746
   0.393492436554195   0.146499413271319   0.560159100454746
   0.726825769887529   0.146499413271319   0.560159100454746
   0.060159103220862   0.479832746604653   0.560159100454746
   0.393492436554195   0.479832746604653   0.560159100454746
   0.726825769887529   0.479832746604653   0.560159100454746
   0.060159103220862   0.813166079937986   0.560159100454746
   0.393492436554195   0.813166079937986   0.560159100454746
   0.726825769887529   0.813166079937986   0.560159100454746
   0.060159103220862   0.146499413271319   0.893492433788079
   0.393492436554195   0.146499413271319   0.893492433788079
   0.726825769887529   0.146499413271319   0.893492433788079
   0.060159103220862   0.479832746604653   0.893492433788079
   0.393492436554195   0.479832746604653   0.893492433788079
   0.726825769887529   0.479832746604653   0.893492433788079
   0.060159103220862   0.813166079937986   0.893492433788079
   0.393492436554195   0.813166079937986   0.893492433788079
   0.726825769887529   0.813166079937986   0.893492433788079
   0.226825766705674   0.146499410816158   0.313166078830057
   0.560159100039007   0.146499410816158   0.313166078830057
   0.893492433372340   0.146499410816158   0.313166078830057
   0.226825766705674   0.479832744149491   0.313166078830057
   0.560159100039007   0.479832744149491   0.313166078830057
   0.893492433372340   0.479832744149491   0.313166078830057
   0.226825766705674   0.813166077482825   0.313166078830057
   0.560159100039007   0.813166077482825   0.313166078830057
   0.893492433372340   0.813166077482825   0.313166078830057
   0.226825766705674   0.146499410816158   0.646499412163390
   0.560159100039007   0.146499410816158   0.646499412163390
   0.893492433372340   0.146499410816158   0.646499412163390
   0.226825766705674   0.479832744149491   0.646499412163390
   0.560159100039007   0.479832744149491   0.646499412163390
   0.893492433372340   0.479832744149491   0.646499412163390
   0.226825766705674   0.813166077482825   0.646499412163390
   0.560159100039007   0.813166077482825   0.646499412163390
   0.893492433372340   0.813166077482825   0.646499412163390
   0.226825766705674   0.146499410816158   0.979832745496723
   0.560159100039007   0.146499410816158   0.979832745496723
   0.893492433372340   0.146499410816158   0.979832745496723
   0.226825766705674   0.479832744149491   0.979832745496723
   0.560159100039007   0.479832744149491   0.979832745496723
   0.893492433372340   0.479832744149491   0.979832745496723
   0.226825766705674   0.813166077482825   0.979832745496723
   0.560159100039007   0.813166077482825   0.979832745496723
   0.893492433372340   0.813166077482825   0.979832745496723
   0.146499417108576   0.226825767484101   0.060159101687182
   0.479832750441910   0.226825767484101   0.060159101687182
   0.813166083775243   0.226825767484101   0.060159101687182
   0.146499417108576   0.560159100817434   0.060159101687182
   0.479832750441910   0.560159100817434   0.060159101687182
   0.813166083775243   0.560159100817434   0.060159101687182
   0.146499417108576   0.893492434150768   0.060159101687182
   0.479832750441910   0.893492434150768   0.060159101687182
   0.813166083775243   0.893492434150768   0.060159101687182
   0.146499417108576   0.226825767484101   0.393492435020516
   0.479832750441910   0.226825767484101   0.393492435020516
   0.813166083775243   0.226825767484101   0.393492435020516
   0.146499417108576   0.560159100817434   0.393492435020516
   0.479832750441910   0.560159100817434   0.393492435020516
   0.813166083775243   0.560159100817434   0.393492435020516
   0.146499417108576   0.893492434150768   0.393492435020516
   0.479832750441910   0.893492434150768   0.393492435020516
   0.813166083775243   0.893492434150768   0.393492435020516
   0.146499417108576   0.226825767484101   0.726825768353849
   0.479832750441910   0.226825767484101   0.726825768353849
   0.813166083775243   0.226825767484101   0.726825768353849
   0.146499417108576   0.560159100817434   0.726825768353849
   0.479832750441910   0.560159100817434   0.726825768353849
   0.813166083775243   0.560159100817434   0.726825768353849
   0.146499417108576   0.893492434150768   0.726825768353849
   0.479832750441910   0.893492434150768   0.726825768353849
   0.813166083775243   0.893492434150768   0.726825768353849
