 C  H  O 
        1.0000000000
  19.950000000000003   0.000000000000000   0.000000000000000
   0.000000000000000  18.629999999999999   0.000000000000000
  -3.515100000000000   0.000000000000000  20.308019999999999
  324  432  108
 Direct
   0.143419623589588   0.056197579669001   0.149476127433836
   0.476752956922922   0.056197579669001   0.149476127433836
   0.810086290256255   0.056197579669001   0.149476127433836
   0.143419623589588   0.389530913002334   0.149476127433836
   0.476752956922922   0.389530913002334   0.149476127433836
   0.810086290256255   0.389530913002334   0.149476127433836
   0.143419623589588   0.722864246335667   0.149476127433836
   0.476752956922922   0.722864246335667   0.149476127433836
   0.810086290256255   0.722864246335667   0.149476127433836
   0.143419623589588   0.056197579669001   0.482809460767169
   0.476752956922922   0.056197579669001   0.482809460767169
   0.810086290256255   0.056197579669001   0.482809460767169
   0.143419623589588   0.389530913002334   0.482809460767169
   0.476752956922922   0.389530913002334   0.482809460767169
   0.810086290256255   0.389530913002334   0.482809460767169
   0.143419623589588   0.722864246335667   0.482809460767169
   0.476752956922922   0.722864246335667   0.482809460767169
   0.810086290256255   0.722864246335667   0.482809460767169
   0.143419623589588   0.056197579669001   0.816142794100503
   0.476752956922922   0.056197579669001   0.816142794100503
   0.810086290256255   0.056197579669001   0.816142794100503
   0.143419623589588   0.389530913002334   0.816142794100503
   0.476752956922922   0.389530913002334   0.816142794100503
   0.810086290256255   0.389530913002334   0.816142794100503
   0.143419623589588   0.722864246335667   0.816142794100503
   0.476752956922922   0.722864246335667   0.816142794100503
   0.810086290256255   0.722864246335667   0.816142794100503
   0.189913137141675   0.222864298790370   0.183856488546362
   0.523246470475008   0.222864298790370   0.183856488546362
   0.856579803808341   0.222864298790370   0.183856488546362
   0.189913137141675   0.556197632123703   0.183856488546362
   0.523246470475008   0.556197632123703   0.183856488546362
   0.856579803808341   0.556197632123703   0.183856488546362
   0.189913137141675   0.889530965457036   0.183856488546362
   0.523246470475008   0.889530965457036   0.183856488546362
   0.856579803808341   0.889530965457036   0.183856488546362
   0.189913137141675   0.222864298790370   0.517189821879695
   0.523246470475008   0.222864298790370   0.517189821879695
   0.856579803808341   0.222864298790370   0.517189821879695
   0.189913137141675   0.556197632123703   0.517189821879695
   0.523246470475008   0.556197632123703   0.517189821879695
   0.856579803808341   0.556197632123703   0.517189821879695
   0.189913137141675   0.889530965457036   0.517189821879695
   0.523246470475008   0.889530965457036   0.517189821879695
   0.856579803808341   0.889530965457036   0.517189821879695
   0.189913137141675   0.222864298790370   0.850523155213028
   0.523246470475008   0.222864298790370   0.850523155213028
   0.856579803808341   0.222864298790370   0.850523155213028
   0.189913137141675   0.556197632123703   0.850523155213028
   0.523246470475008   0.556197632123703   0.850523155213028
   0.856579803808341   0.556197632123703   0.850523155213028
   0.189913137141675   0.889530965457036   0.850523155213028
   0.523246470475008   0.889530965457036   0.850523155213028
   0.856579803808341   0.889530965457036   0.850523155213028
   0.172931180236449   0.056865423506743   0.085926611425089
   0.506264513569782   0.056865423506743   0.085926611425089
   0.839597846903116   0.056865423506743   0.085926611425089
   0.172931180236449   0.390198756840077   0.085926611425089
   0.506264513569782   0.390198756840077   0.085926611425089
   0.839597846903116   0.390198756840077   0.085926611425089
   0.172931180236449   0.723532090173410   0.085926611425089
   0.506264513569782   0.723532090173410   0.085926611425089
   0.839597846903116   0.723532090173410   0.085926611425089
   0.172931180236449   0.056865423506743   0.419259944758422
   0.506264513569782   0.056865423506743   0.419259944758422
   0.839597846903116   0.056865423506743   0.419259944758422
   0.172931180236449   0.390198756840077   0.419259944758422
   0.506264513569782   0.390198756840077   0.419259944758422
   0.839597846903116   0.390198756840077   0.419259944758422
   0.172931180236449   0.723532090173410   0.419259944758422
   0.506264513569782   0.723532090173410   0.419259944758422
   0.839597846903116   0.723532090173410   0.419259944758422
   0.172931180236449   0.056865423506743   0.752593278091755
   0.506264513569782   0.056865423506743   0.752593278091755
   0.839597846903116   0.056865423506743   0.752593278091755
   0.172931180236449   0.390198756840077   0.752593278091755
   0.506264513569782   0.390198756840077   0.752593278091755
   0.839597846903116   0.390198756840077   0.752593278091755
   0.172931180236449   0.723532090173410   0.752593278091755
   0.506264513569782   0.723532090173410   0.752593278091755
   0.839597846903116   0.723532090173410   0.752593278091755
   0.160401589611954   0.223532117801655   0.247406004867723
   0.493734922945287   0.223532117801655   0.247406004867723
   0.827068256278620   0.223532117801655   0.247406004867723
   0.160401589611954   0.556865451134989   0.247406004867723
   0.493734922945287   0.556865451134989   0.247406004867723
   0.827068256278620   0.556865451134989   0.247406004867723
   0.160401589611954   0.890198784468322   0.247406004867723
   0.493734922945287   0.890198784468322   0.247406004867723
   0.827068256278620   0.890198784468322   0.247406004867723
   0.160401589611954   0.223532117801655   0.580739338201056
   0.493734922945287   0.223532117801655   0.580739338201056
   0.827068256278620   0.223532117801655   0.580739338201056
   0.160401589611954   0.556865451134989   0.580739338201056
   0.493734922945287   0.556865451134989   0.580739338201056
   0.827068256278620   0.556865451134989   0.580739338201056
   0.160401589611954   0.890198784468322   0.580739338201056
   0.493734922945287   0.890198784468322   0.580739338201056
   0.827068256278620   0.890198784468322   0.580739338201056
   0.160401589611954   0.223532117801655   0.914072671534389
   0.493734922945287   0.223532117801655   0.914072671534389
   0.827068256278620   0.223532117801655   0.914072671534389
   0.160401589611954   0.556865451134989   0.914072671534389
   0.493734922945287   0.556865451134989   0.914072671534389
   0.827068256278620   0.556865451134989   0.914072671534389
   0.160401589611954   0.890198784468322   0.914072671534389
   0.493734922945287   0.890198784468322   0.914072671534389
   0.827068256278620   0.890198784468322   0.914072671534389
   0.119553396163782   0.071638436406044   0.023704600324461
   0.452886729497115   0.071638436406044   0.023704600324461
   0.786220062830449   0.071638436406044   0.023704600324461
   0.119553396163782   0.404971769739378   0.023704600324461
   0.452886729497115   0.404971769739378   0.023704600324461
   0.786220062830449   0.404971769739378   0.023704600324461
   0.119553396163782   0.738305103072711   0.023704600324461
   0.452886729497115   0.738305103072711   0.023704600324461
   0.786220062830449   0.738305103072711   0.023704600324461
   0.119553396163782   0.071638436406044   0.357037933657794
   0.452886729497115   0.071638436406044   0.357037933657794
   0.786220062830449   0.071638436406044   0.357037933657794
   0.119553396163782   0.404971769739378   0.357037933657794
   0.452886729497115   0.404971769739378   0.357037933657794
   0.786220062830449   0.404971769739378   0.357037933657794
   0.119553396163782   0.738305103072711   0.357037933657794
   0.452886729497115   0.738305103072711   0.357037933657794
   0.786220062830449   0.738305103072711   0.357037933657794
   0.119553396163782   0.071638436406044   0.690371266991127
   0.452886729497115   0.071638436406044   0.690371266991127
   0.786220062830449   0.071638436406044   0.690371266991127
   0.119553396163782   0.404971769739378   0.690371266991127
   0.452886729497115   0.404971769739378   0.690371266991127
   0.786220062830449   0.404971769739378   0.690371266991127
   0.119553396163782   0.738305103072711   0.690371266991127
   0.452886729497115   0.738305103072711   0.690371266991127
   0.786220062830449   0.738305103072711   0.690371266991127
   0.213779308446320   0.238305133905511   0.309628067126609
   0.547112641779653   0.238305133905511   0.309628067126609
   0.880445975112986   0.238305133905511   0.309628067126609
   0.213779308446320   0.571638467238844   0.309628067126609
   0.547112641779653   0.571638467238844   0.309628067126609
   0.880445975112986   0.571638467238844   0.309628067126609
   0.213779308446320   0.904971800572178   0.309628067126609
   0.547112641779653   0.904971800572178   0.309628067126609
   0.880445975112986   0.904971800572178   0.309628067126609
   0.213779308446320   0.238305133905511   0.642961400459942
   0.547112641779653   0.238305133905511   0.642961400459942
   0.880445975112986   0.238305133905511   0.642961400459942
   0.213779308446320   0.571638467238844   0.642961400459942
   0.547112641779653   0.571638467238844   0.642961400459942
   0.880445975112986   0.571638467238844   0.642961400459942
   0.213779308446320   0.904971800572178   0.642961400459942
   0.547112641779653   0.904971800572178   0.642961400459942
   0.880445975112986   0.904971800572178   0.642961400459942
   0.213779308446320   0.238305133905511   0.976294733793276
   0.547112641779653   0.238305133905511   0.976294733793276
   0.880445975112986   0.238305133905511   0.976294733793276
   0.213779308446320   0.571638467238844   0.976294733793276
   0.547112641779653   0.571638467238844   0.976294733793276
   0.880445975112986   0.571638467238844   0.976294733793276
   0.213779308446320   0.904971800572178   0.976294733793276
   0.547112641779653   0.904971800572178   0.976294733793276
   0.880445975112986   0.904971800572178   0.976294733793276
   0.057670811457823   0.022958731505614   0.019756907636540
   0.391004144791156   0.022958731505614   0.019756907636540
   0.724337478124489   0.022958731505614   0.019756907636540
   0.057670811457823   0.356292064838947   0.019756907636540
   0.391004144791156   0.356292064838947   0.019756907636540
   0.724337478124489   0.356292064838947   0.019756907636540
   0.057670811457823   0.689625398172281   0.019756907636540
   0.391004144791156   0.689625398172281   0.019756907636540
   0.724337478124489   0.689625398172281   0.019756907636540
   0.057670811457823   0.022958731505614   0.353090240969874
   0.391004144791156   0.022958731505614   0.353090240969874
   0.724337478124489   0.022958731505614   0.353090240969874
   0.057670811457823   0.356292064838947   0.353090240969874
   0.391004144791156   0.356292064838947   0.353090240969874
   0.724337478124489   0.356292064838947   0.353090240969874
   0.057670811457823   0.689625398172281   0.353090240969874
   0.391004144791156   0.689625398172281   0.353090240969874
   0.724337478124489   0.689625398172281   0.353090240969874
   0.057670811457823   0.022958731505614   0.686423574303207
   0.391004144791156   0.022958731505614   0.686423574303207
   0.724337478124489   0.022958731505614   0.686423574303207
   0.057670811457823   0.356292064838947   0.686423574303207
   0.391004144791156   0.356292064838947   0.686423574303207
   0.724337478124489   0.356292064838947   0.686423574303207
   0.057670811457823   0.689625398172281   0.686423574303207
   0.391004144791156   0.689625398172281   0.686423574303207
   0.724337478124489   0.689625398172281   0.686423574303207
   0.275661880521277   0.189625415545435   0.313575718592487
   0.608995213854610   0.189625415545435   0.313575718592487
   0.942328547187943   0.189625415545435   0.313575718592487
   0.275661880521277   0.522958748878768   0.313575718592487
   0.608995213854610   0.522958748878768   0.313575718592487
   0.942328547187943   0.522958748878768   0.313575718592487
   0.275661880521277   0.856292082212102   0.313575718592487
   0.608995213854610   0.856292082212102   0.313575718592487
   0.942328547187943   0.856292082212102   0.313575718592487
   0.275661880521277   0.189625415545435   0.646909051925821
   0.608995213854610   0.189625415545435   0.646909051925821
   0.942328547187943   0.189625415545435   0.646909051925821
   0.275661880521277   0.522958748878768   0.646909051925821
   0.608995213854610   0.522958748878768   0.646909051925821
   0.942328547187943   0.522958748878768   0.646909051925821
   0.275661880521277   0.856292082212102   0.646909051925821
   0.608995213854610   0.856292082212102   0.646909051925821
   0.942328547187943   0.856292082212102   0.646909051925821
   0.275661880521277   0.189625415545435   0.980242385259154
   0.608995213854610   0.189625415545435   0.980242385259154
   0.942328547187943   0.189625415545435   0.980242385259154
   0.275661880521277   0.522958748878768   0.980242385259154
   0.608995213854610   0.522958748878768   0.980242385259154
   0.942328547187943   0.522958748878768   0.980242385259154
   0.275661880521277   0.856292082212102   0.980242385259154
   0.608995213854610   0.856292082212102   0.980242385259154
   0.942328547187943   0.856292082212102   0.980242385259154
   0.032676909417323   0.008046794141720   0.084454807918306
   0.366010242750656   0.008046794141720   0.084454807918306
   0.699343576083989   0.008046794141720   0.084454807918306
   0.032676909417323   0.341380127475053   0.084454807918306
   0.366010242750656   0.341380127475053   0.084454807918306
   0.699343576083989   0.341380127475053   0.084454807918306
   0.032676909417323   0.674713460808386   0.084454807918306
   0.366010242750656   0.674713460808386   0.084454807918306
   0.699343576083989   0.674713460808386   0.084454807918306
   0.032676909417323   0.008046794141720   0.417788141251640
   0.366010242750656   0.008046794141720   0.417788141251640
   0.699343576083989   0.008046794141720   0.417788141251640
   0.032676909417323   0.341380127475053   0.417788141251640
   0.366010242750656   0.341380127475053   0.417788141251640
   0.699343576083989   0.341380127475053   0.417788141251640
   0.032676909417323   0.674713460808386   0.417788141251640
   0.366010242750656   0.674713460808386   0.417788141251640
   0.699343576083989   0.674713460808386   0.417788141251640
   0.032676909417323   0.008046794141720   0.751121474584973
   0.366010242750656   0.008046794141720   0.751121474584973
   0.699343576083989   0.008046794141720   0.751121474584973
   0.032676909417323   0.341380127475053   0.751121474584973
   0.366010242750656   0.341380127475053   0.751121474584973
   0.699343576083989   0.341380127475053   0.751121474584973
   0.032676909417323   0.674713460808386   0.751121474584973
   0.366010242750656   0.674713460808386   0.751121474584973
   0.699343576083989   0.674713460808386   0.751121474584973
   0.300655839688926   0.174713505992417   0.248877836404030
   0.633989173022259   0.174713505992417   0.248877836404030
   0.967322506355593   0.174713505992417   0.248877836404030
   0.300655839688926   0.508046839325750   0.248877836404030
   0.633989173022259   0.508046839325750   0.248877836404030
   0.967322506355593   0.508046839325750   0.248877836404030
   0.300655839688926   0.841380172659083   0.248877836404030
   0.633989173022259   0.841380172659083   0.248877836404030
   0.967322506355593   0.841380172659083   0.248877836404030
   0.300655839688926   0.174713505992417   0.582211169737363
   0.633989173022259   0.174713505992417   0.582211169737363
   0.967322506355593   0.174713505992417   0.582211169737363
   0.300655839688926   0.508046839325750   0.582211169737363
   0.633989173022259   0.508046839325750   0.582211169737363
   0.967322506355593   0.508046839325750   0.582211169737363
   0.300655839688926   0.841380172659083   0.582211169737363
   0.633989173022259   0.841380172659083   0.582211169737363
   0.967322506355593   0.841380172659083   0.582211169737363
   0.300655839688926   0.174713505992417   0.915544503070696
   0.633989173022259   0.174713505992417   0.915544503070696
   0.967322506355593   0.174713505992417   0.915544503070696
   0.300655839688926   0.508046839325750   0.915544503070696
   0.633989173022259   0.508046839325750   0.915544503070696
   0.967322506355593   0.508046839325750   0.915544503070696
   0.300655839688926   0.841380172659083   0.915544503070696
   0.633989173022259   0.841380172659083   0.915544503070696
   0.967322506355593   0.841380172659083   0.915544503070696
   0.066305614078145   0.056181863394435   0.142207800009109
   0.399638947411478   0.056181863394435   0.142207800009109
   0.732972280744812   0.056181863394435   0.142207800009109
   0.066305614078145   0.389515196727769   0.142207800009109
   0.399638947411478   0.389515196727769   0.142207800009109
   0.732972280744812   0.389515196727769   0.142207800009109
   0.066305614078145   0.722848530061102   0.142207800009109
   0.399638947411478   0.722848530061102   0.142207800009109
   0.732972280744812   0.722848530061102   0.142207800009109
   0.066305614078145   0.056181863394435   0.475541133342442
   0.399638947411478   0.056181863394435   0.475541133342442
   0.732972280744812   0.056181863394435   0.475541133342442
   0.066305614078145   0.389515196727769   0.475541133342442
   0.399638947411478   0.389515196727769   0.475541133342442
   0.732972280744812   0.389515196727769   0.475541133342442
   0.066305614078145   0.722848530061102   0.475541133342442
   0.399638947411478   0.722848530061102   0.475541133342442
   0.732972280744812   0.722848530061102   0.475541133342442
   0.066305614078145   0.056181863394435   0.808874466675775
   0.399638947411478   0.056181863394435   0.808874466675775
   0.732972280744812   0.056181863394435   0.808874466675775
   0.066305614078145   0.389515196727769   0.808874466675775
   0.399638947411478   0.389515196727769   0.808874466675775
   0.732972280744812   0.389515196727769   0.808874466675775
   0.066305614078145   0.722848530061102   0.808874466675775
   0.399638947411478   0.722848530061102   0.808874466675775
   0.732972280744812   0.722848530061102   0.808874466675775
   0.267027148561753   0.222848577470717   0.191124839744884
   0.600360481895086   0.222848577470717   0.191124839744884
   0.933693815228420   0.222848577470717   0.191124839744884
   0.267027148561753   0.556181910804050   0.191124839744884
   0.600360481895086   0.556181910804050   0.191124839744884
   0.933693815228420   0.556181910804050   0.191124839744884
   0.267027148561753   0.889515244137383   0.191124839744884
   0.600360481895086   0.889515244137383   0.191124839744884
   0.933693815228420   0.889515244137383   0.191124839744884
   0.267027148561753   0.222848577470717   0.524458173078217
   0.600360481895086   0.222848577470717   0.524458173078217
   0.933693815228420   0.222848577470717   0.524458173078217
   0.267027148561753   0.556181910804050   0.524458173078217
   0.600360481895086   0.556181910804050   0.524458173078217
   0.933693815228420   0.556181910804050   0.524458173078217
   0.267027148561753   0.889515244137383   0.524458173078217
   0.600360481895086   0.889515244137383   0.524458173078217
   0.933693815228420   0.889515244137383   0.524458173078217
   0.267027148561753   0.222848577470717   0.857791506411551
   0.600360481895086   0.222848577470717   0.857791506411551
   0.933693815228420   0.222848577470717   0.857791506411551
   0.267027148561753   0.556181910804050   0.857791506411551
   0.600360481895086   0.556181910804050   0.857791506411551
   0.933693815228420   0.556181910804050   0.857791506411551
   0.267027148561753   0.889515244137383   0.857791506411551
   0.600360481895086   0.889515244137383   0.857791506411551
   0.933693815228420   0.889515244137383   0.857791506411551
   0.214097377816790   0.096228834848936   0.090548422170218
   0.547430711150123   0.096228834848936   0.090548422170218
   0.880764044483457   0.096228834848936   0.090548422170218
   0.214097377816790   0.429562168182269   0.090548422170218
   0.547430711150123   0.429562168182269   0.090548422170218
   0.880764044483457   0.429562168182269   0.090548422170218
   0.214097377816790   0.762895501515603   0.090548422170218
   0.547430711150123   0.762895501515603   0.090548422170218
   0.880764044483457   0.762895501515603   0.090548422170218
   0.214097377816790   0.096228834848936   0.423881755503551
   0.547430711150123   0.096228834848936   0.423881755503551
   0.880764044483457   0.096228834848936   0.423881755503551
   0.214097377816790   0.429562168182269   0.423881755503551
   0.547430711150123   0.429562168182269   0.423881755503551
   0.880764044483457   0.429562168182269   0.423881755503551
   0.214097377816790   0.762895501515603   0.423881755503551
   0.547430711150123   0.762895501515603   0.423881755503551
   0.880764044483457   0.762895501515603   0.423881755503551
   0.214097377816790   0.096228834848936   0.757215088836884
   0.547430711150123   0.096228834848936   0.757215088836884
   0.880764044483457   0.096228834848936   0.757215088836884
   0.214097377816790   0.429562168182269   0.757215088836884
   0.547430711150123   0.429562168182269   0.757215088836884
   0.880764044483457   0.429562168182269   0.757215088836884
   0.214097377816790   0.762895501515603   0.757215088836884
   0.547430711150123   0.762895501515603   0.757215088836884
   0.880764044483457   0.762895501515603   0.757215088836884
   0.119235358388208   0.262895464839115   0.242784203947721
   0.452568691721542   0.262895464839115   0.242784203947721
   0.785902025054875   0.262895464839115   0.242784203947721
   0.119235358388208   0.596228798172448   0.242784203947721
   0.452568691721542   0.596228798172448   0.242784203947721
   0.785902025054875   0.596228798172448   0.242784203947721
   0.119235358388208   0.929562131505781   0.242784203947721
   0.452568691721542   0.929562131505781   0.242784203947721
   0.785902025054875   0.929562131505781   0.242784203947721
   0.119235358388208   0.262895464839115   0.576117537281055
   0.452568691721542   0.262895464839115   0.576117537281055
   0.785902025054875   0.262895464839115   0.576117537281055
   0.119235358388208   0.596228798172448   0.576117537281055
   0.452568691721542   0.596228798172448   0.576117537281055
   0.785902025054875   0.596228798172448   0.576117537281055
   0.119235358388208   0.929562131505781   0.576117537281055
   0.452568691721542   0.929562131505781   0.576117537281055
   0.785902025054875   0.929562131505781   0.576117537281055
   0.119235358388208   0.262895464839115   0.909450870614388
   0.452568691721542   0.262895464839115   0.909450870614388
   0.785902025054875   0.262895464839115   0.909450870614388
   0.119235358388208   0.596228798172448   0.909450870614388
   0.452568691721542   0.596228798172448   0.909450870614388
   0.785902025054875   0.596228798172448   0.909450870614388
   0.119235358388208   0.929562131505781   0.909450870614388
   0.452568691721542   0.929562131505781   0.909450870614388
   0.785902025054875   0.929562131505781   0.909450870614388
   0.195968695590411   0.003916562337440   0.082461186373653
   0.529302028923744   0.003916562337440   0.082461186373653
   0.862635362257077   0.003916562337440   0.082461186373653
   0.195968695590411   0.337249895670774   0.082461186373653
   0.529302028923744   0.337249895670774   0.082461186373653
   0.862635362257077   0.337249895670774   0.082461186373653
   0.195968695590411   0.670583229004107   0.082461186373653
   0.529302028923744   0.670583229004107   0.082461186373653
   0.862635362257077   0.670583229004107   0.082461186373653
   0.195968695590411   0.003916562337440   0.415794519706987
   0.529302028923744   0.003916562337440   0.415794519706987
   0.862635362257077   0.003916562337440   0.415794519706987
   0.195968695590411   0.337249895670774   0.415794519706987
   0.529302028923744   0.337249895670774   0.415794519706987
   0.862635362257077   0.337249895670774   0.415794519706987
   0.195968695590411   0.670583229004107   0.415794519706987
   0.529302028923744   0.670583229004107   0.415794519706987
   0.862635362257077   0.670583229004107   0.415794519706987
   0.195968695590411   0.003916562337440   0.749127853040320
   0.529302028923744   0.003916562337440   0.749127853040320
   0.862635362257077   0.003916562337440   0.749127853040320
   0.195968695590411   0.337249895670774   0.749127853040320
   0.529302028923744   0.337249895670774   0.749127853040320
   0.862635362257077   0.337249895670774   0.749127853040320
   0.195968695590411   0.670583229004107   0.749127853040320
   0.529302028923744   0.670583229004107   0.749127853040320
   0.862635362257077   0.670583229004107   0.749127853040320
   0.137364109972444   0.170583248518759   0.250871416547924
   0.470697443305778   0.170583248518759   0.250871416547924
   0.804030776639111   0.170583248518759   0.250871416547924
   0.137364109972444   0.503916581852092   0.250871416547924
   0.470697443305778   0.503916581852092   0.250871416547924
   0.804030776639111   0.503916581852092   0.250871416547924
   0.137364109972444   0.837249915185425   0.250871416547924
   0.470697443305778   0.837249915185425   0.250871416547924
   0.804030776639111   0.837249915185425   0.250871416547924
   0.137364109972444   0.170583248518759   0.584204749881257
   0.470697443305778   0.170583248518759   0.584204749881257
   0.804030776639111   0.170583248518759   0.584204749881257
   0.137364109972444   0.503916581852092   0.584204749881257
   0.470697443305778   0.503916581852092   0.584204749881257
   0.804030776639111   0.503916581852092   0.584204749881257
   0.137364109972444   0.837249915185425   0.584204749881257
   0.470697443305778   0.837249915185425   0.584204749881257
   0.804030776639111   0.837249915185425   0.584204749881257
   0.137364109972444   0.170583248518759   0.917538083214591
   0.470697443305778   0.170583248518759   0.917538083214591
   0.804030776639111   0.170583248518759   0.917538083214591
   0.137364109972444   0.503916581852092   0.917538083214591
   0.470697443305778   0.503916581852092   0.917538083214591
   0.804030776639111   0.503916581852092   0.917538083214591
   0.137364109972444   0.837249915185425   0.917538083214591
   0.470697443305778   0.837249915185425   0.917538083214591
   0.804030776639111   0.837249915185425   0.917538083214591
   0.100834463123261   0.126859800244790   0.026148643042117
   0.434167796456595   0.126859800244790   0.026148643042117
   0.767501129789928   0.126859800244790   0.026148643042117
   0.100834463123261   0.460193133578124   0.026148643042117
   0.434167796456595   0.460193133578124   0.026148643042117
   0.767501129789928   0.460193133578124   0.026148643042117
   0.100834463123261   0.793526466911457   0.026148643042117
   0.434167796456595   0.793526466911457   0.026148643042117
   0.767501129789928   0.793526466911457   0.026148643042117
   0.100834463123261   0.126859800244790   0.359481976375450
   0.434167796456595   0.126859800244790   0.359481976375450
   0.767501129789928   0.126859800244790   0.359481976375450
   0.100834463123261   0.460193133578124   0.359481976375450
   0.434167796456595   0.460193133578124   0.359481976375450
   0.767501129789928   0.460193133578124   0.359481976375450
   0.100834463123261   0.793526466911457   0.359481976375450
   0.434167796456595   0.793526466911457   0.359481976375450
   0.767501129789928   0.793526466911457   0.359481976375450
   0.100834463123261   0.126859800244790   0.692815309708783
   0.434167796456595   0.126859800244790   0.692815309708783
   0.767501129789928   0.126859800244790   0.692815309708783
   0.100834463123261   0.460193133578124   0.692815309708783
   0.434167796456595   0.460193133578124   0.692815309708783
   0.767501129789928   0.460193133578124   0.692815309708783
   0.100834463123261   0.793526466911457   0.692815309708783
   0.434167796456595   0.793526466911457   0.692815309708783
   0.767501129789928   0.793526466911457   0.692815309708783
   0.232498241311159   0.293526506914610   0.307184067553695
   0.565831574644492   0.293526506914610   0.307184067553695
   0.899164907977826   0.293526506914610   0.307184067553695
   0.232498241311159   0.626859840247944   0.307184067553695
   0.565831574644492   0.626859840247944   0.307184067553695
   0.899164907977826   0.626859840247944   0.307184067553695
   0.232498241311159   0.960193173581277   0.307184067553695
   0.565831574644492   0.960193173581277   0.307184067553695
   0.899164907977826   0.960193173581277   0.307184067553695
   0.232498241311159   0.293526506914610   0.640517400887028
   0.565831574644492   0.293526506914610   0.640517400887028
   0.899164907977826   0.293526506914610   0.640517400887028
   0.232498241311159   0.626859840247944   0.640517400887028
   0.565831574644492   0.626859840247944   0.640517400887028
   0.899164907977826   0.626859840247944   0.640517400887028
   0.232498241311159   0.960193173581277   0.640517400887028
   0.565831574644492   0.960193173581277   0.640517400887028
   0.899164907977826   0.960193173581277   0.640517400887028
   0.232498241311159   0.293526506914610   0.973850734220362
   0.565831574644492   0.293526506914610   0.973850734220362
   0.899164907977826   0.293526506914610   0.973850734220362
   0.232498241311159   0.626859840247944   0.973850734220362
   0.565831574644492   0.626859840247944   0.973850734220362
   0.899164907977826   0.626859840247944   0.973850734220362
   0.232498241311159   0.960193173581277   0.973850734220362
   0.565831574644492   0.960193173581277   0.973850734220362
   0.899164907977826   0.960193173581277   0.973850734220362
   0.141236913644328   0.066035626063227   0.312133666774241