 C  N  O  H 
 1.0000000000000000
    15.2358655757701786    0.0399626177210310   -0.0442981257220340
     3.2910369957304670   13.6123681396851559    0.1890850076032660
    -3.8653873317325700   -1.9495603775040580   14.1560846545526804
 C   N   O   H  
  72  24  48 168
Cartesian
  5.0155684216899559  5.1096038576765999  2.6468765307086066
 10.0941903332556038  5.1229247071262334  2.6321104320946298
 15.1728120933621877  5.1362456104584835  2.6173444123346101
  6.6610869547006422 11.9157878896068290  2.7414190228560136
 11.7397088021065379 11.9291088816151536  2.7266530329692484
 16.8183305625328607 11.9424296954239306  2.7118869723226555
  3.0828747791316449  4.1348237000139711  9.7249188162105735
  8.1614966681434371  4.1481445410509235  9.7101527464850790
 13.2401184563165870  4.1614654201598515  9.6953868118210522
  4.7283932798069692 10.9410077114523379  9.8194613415174778
  9.8070151343999150 10.9543286115811433  9.8046953437344690
 14.8856369670180992 10.9676495205284947  9.7899293098970013
 -0.2240195854365430  0.7349745256432385  4.5109816347638123
  4.8546022572744256  0.7482953908169625  4.4962156223559901
  9.9332241414503049  0.7616162032186744  4.4814495630319149
  1.4214989386053591  7.5411584852355134  4.6055240981220553
  6.5001207302470210  7.5544794700626454  4.5907580834499049
 11.5787426607439787  7.5678003055058207  4.5759920751565319
 -2.1567132232180408 -0.2398057656302052 11.5890239327740705
  2.9219085947244241 -0.2264848862110934 11.5742579555263703
  8.0005304715204559 -0.2131640032735114 11.5594918965759970
 -0.5111946910682541  6.5663783835541727 11.6835664091753166
  4.5674270541366022  6.5796993001852204 11.6688004018033311
  9.6460489535941676  6.5930200335583811 11.6540344095419606
  4.4345105529067670  3.8614908949566225  2.0047425708634017
  9.5131324505813222  3.8748118364973183  1.9899766235380978
 14.5917542310490536  3.8881326806887144  1.9752105969112443
  6.0800291128940334 10.6676748657587073  2.0992851503583831
 11.1586509151887352 10.6809958533583664  2.0845190888824647
 16.2372727607636627 10.6943166880601996  2.0697530110258322
  2.5018168441617035  2.8867108697636912  9.0827850069917737
  7.5804388253332151  2.9000315826442740  9.0680188694196353
 12.6590604988083193  2.9133526105289933  9.0532529129511143
  4.1473354450363251  9.6928948694727772  9.1773275049687051
  9.2259572495545914  9.7062156915298150  9.1625614082407925
 14.3045789960344685  9.7195366392780098  9.1477954676477857
  0.3570383574278299  1.9830875385907296  5.1531152703415470
  5.4356601966836307  1.9964083578946670  5.1383492590026894
 10.5142820438404065  2.0097291935041013  5.1235831663706124
  2.0025569392573530  8.7892715381609197  5.2476577500552386
  7.0811786940189752  8.8025924220256684  5.2328917246581472
 12.1598005731691003  8.8159133161650072  5.2181257421824858
 -1.5756553445845896  1.0083073308006043 12.2311575941826511
  3.5029666138955111  1.0216280723973392 12.2163915887208017
  8.5815884047084126  1.0349490130889161 12.2016255226161938
  0.0698632864375526  7.8144912568166864 12.3257000374345651
  5.1484849879496259  7.8278122423003138 12.3109340072297240
 10.2271069887746506  7.8411329203202529 12.2961679444412546
  0.2163002868852766  1.7608130020403858  1.1324744951387349
  5.2949220073795926  1.7741338476758732  1.1177085015174013
 10.3735437187838073  1.7874549000448094  1.1029422336790384
  1.8618187673936748  8.5669970955041066  1.2270170350257299
  6.9404404257083687  8.5803179188901417  1.2122508711428119
 12.0190623348021646  8.5936387746098486  1.1974848276013521
 -1.7163933749772069  0.7860326850667672  8.2105168070838630
  3.3622282943389150  0.7993535774521642  8.1957507703086829
  8.4408500543976146  0.8126746535754618  8.1809845521920348
 -0.0708749134821326  7.5922168053989862  8.3050593987182832
  5.0077467132154503  7.6055377863819977  8.2902932238719469
 10.0863686742235661  7.6188586874940949  8.2755270687659923
  4.5752497466209672  4.0837647737808931  6.0253846529389232
  9.6538715191952171  4.0970857630356265  6.0106184168192049
 14.7324934654436692  4.1104065657641344  5.9958524649987082
  6.2207682497387387 10.8899488602029493  6.1199272223568020
 11.2993899973019296 10.9032697883297036  6.1051608875885899
 16.3780118396920678 10.9165907500394397  6.0903949348344337
  2.6425560071731482  3.1089846773888659 13.1034269118939655
  7.7211779300078955  3.1223055756521445 13.0886607589665687
 12.7997997862552335  3.1356264935467615 13.0738947899289499
  4.2880746923336588  9.9151686161937267 13.1979694701928754
  9.3666964764608043  9.9284896475444828 13.1832031857789964
 14.4453180838438549  9.9418105121489422 13.1684373588004551
  1.3017677477472542  0.9658112880528568  1.0132868116068297
  6.3803896831290015  0.9791325043527337  0.9985202258422823
 11.4590113593793124  0.9924536144701930  0.9837538880058110
  2.9472862629903407  7.7719956357351210  1.1078288452254923
  8.0259080915683860  7.7853166691592168  1.0930626649067727
 13.1045299804450419  7.7986373427485187  1.0782970147997581
 -0.6309259357966186 -0.0089688561771672  8.0913290394189019
  4.4476959457930310  0.0043523198872388  8.0765626243527464
  9.5263176525138853  0.0176734190544550  8.0617962915866563
  1.0145926129753595  6.7972152348962780  8.1858714751870814
  6.0932143510775383  6.8105365330655205  8.1711049104624127
 11.1718362522131986  6.8238572423199884  8.1563391279893889
  3.4897820116426672  4.8787654691233255  6.1445734294756642
  8.5684038535825717  4.8920865657963413  6.1298070491244347
 13.6470257276071436  4.9054074533024030  6.1150408953921334
  5.1353005725500012 11.6849495222208883  6.2391159167209320
 10.2139223951660174 11.6982704835353886  6.2243497532703378
 15.2925441225742063 11.7115917914953620  6.2095829828972748
  1.5570883114208358  3.9039855120645806 13.2226154373346265
  6.6357101967805994  3.9173063833989876 13.2078494150426202
 11.7143320321834778  3.9306272758014207 13.1930833314077010
  3.2026069116124960 10.7101692607670209 13.3171583335236932
  8.2812286476941424 10.7234903657793339 13.3023919799962140
 13.3598504724692191 10.7368117305993138 13.2876252611887011
  0.5048796433174376  2.9409878503031077  1.7541588370826682
  5.5835014588191809  2.9543086822606144  1.7393926557431643
 10.6621233187282609  2.9676294983127018  1.7246267175244125
  2.1503983363794483  9.7471719408723736  1.8487013212934729
  7.2290200339157735  9.7604926687026783  1.8339351686824295
 12.3076418201136004  9.7738135624625642  1.8191691548166440
 -1.4278138690581275  1.9662075371922347  8.8322011000303036
  3.6508080556856068  1.9795284460345042  8.8174350378336985
  8.7294296274313581  1.9928493234046984  8.8026690595751695
  0.2177045176356953  8.7723917055577250  8.9267435318223072
  5.2963264858292387  8.7857125654707708  8.9119775827746146
 10.3749481378175332  8.7990333695191776  8.8972115607465998
  4.2866698449426153  2.9035908983950685  5.4036984718304568
  9.3652916897679521  2.9169118151005380  5.3889325128709231
 14.4439138011286481  2.9302327048091028  5.3741664796091735
  5.9321883318155475  9.7097751150432430  5.4982410033176494
 11.0108102396831065  9.7230958506532463  5.4834750528352032
 16.0894321772458184  9.7364168434900797  5.4687089967452964
  2.3539761883631760  1.9288108014192309 12.4817409137866058
  7.4325977257935065  1.9421316882494419 12.4669748308532782
 12.5112198991732679  1.9554525528008033 12.4522087911578740
  3.9994946367653657  8.7349948669554873 12.5762833416216111
  9.0781163162540679  8.7483156603104018 12.5615173842679280
 14.1567385113622866  8.7616366197693232 12.5467512448842076
  4.1512357499336705  1.4619349781132676  0.7359724038522001
  9.2298573815798939  1.4752559470929902  0.7212063370045675
 14.3084798526136918  1.4885766760735246  0.7064397053862479
  5.7967541215489229  8.2681191926367692  0.8305148793612561
 10.8753760822907246  8.2814399430300067  0.8157486309768046
 15.9539981412647691  8.2947608649651947  0.8009826128244532
  2.2185420199808479  0.4871547710802475  7.8140146418006484
  7.2971637581791242  0.5004757725084383  7.7992486849228175
 12.3757861442105028  0.5137965131158959  7.7844820938278145
  3.8640603929050830  7.2933389126663783  7.9085572357839311
  8.9426824251223387  7.3066597944542497  7.8937910040581087
 14.0213045185740164  7.3199804997961868  7.8790248589023761
  0.6403140615438171  4.3826420199743499  6.4218875559744033
  5.7189359950659231  4.3959629353787504  6.4071212232289367
 10.7975577089322545  4.4092837480269704  6.3923553859258488
  2.2858323084512513 11.1888262158335845  6.5164302976548703
  7.3644544991732603 11.2021469043288775  6.5016637893423397
 12.4430762037319216 11.2154678449315650  6.4868976224929353
 -1.2923795443892228  3.4078616929907555 13.4999298172929993
  3.7862422490860244  3.4211828204760666 13.4851636209533741
  8.8648641516993916  3.4345035303019849 13.4703977392493819
  0.3531385850277680 10.2140460197539991 13.5944726363412762
  5.4317609656699135 10.2273667213147608 13.5797061025378945
 10.5103827185184890 10.2406878117502043 13.5649400388726207
  4.2050441932153291  5.7996747934980863  2.8982918646759868
  9.2836660381348981  5.8129954128774086  2.8835257385554951
 14.3622879569908601  5.8263165024809656  2.8687597868189032
  5.8505626132746205 12.6058587396117581  2.9928342859036063
 10.9291844801755555 12.6191797349687747  2.9780683449452825
 16.0078064245060148 12.6325006734136984  2.9633023729667354
  2.2723505567673086  4.8248945198985647  9.9763341472447244
  7.3509723430384017  4.8382152878031990  9.9615680944482339
 12.4295942842292799  4.8515363200691057  9.9468021258079453
  3.9178690248183945 11.6310784333318207 10.0708765674174270
  8.9964908515718847 11.6443993684004070 10.0561105927507697
 14.0751128116632174 11.6577203807407912 10.0413446492702505
  0.5865049823695355  0.0449040325674132  4.2595665356514889
  5.6651268589736663  0.0582249473391528  4.2448005638385986
 10.7437487313075675  0.0715457535863194  4.2300345218456314
  2.2320234654120465  6.8510879314512563  4.3541089702545017
  7.3106454064415178  6.8644090483843865  4.3393430971340932
 12.3892672167058162  6.8777297782891642  4.3245769757498023
 -1.3461886402872203 -0.9298763126685269 11.3376087939087409
  3.7324332087902556 -0.9165553905907878 11.3228428288348457
  8.8110550938417251 -0.9032344596768018 11.3080768357541910
  0.2993297709455049  5.8763077744031085 11.4321513288790122
  5.3779517333472437  5.8896288774175058 11.4173854286045433
 10.4565734778390418  5.9029496228900129 11.4026193092883616
  0.4765965469226610  4.8499740687386215  3.5781522054546948
  5.5552183294230746  4.8632947990158879  3.5633861084442762
 10.6338402203829592  4.8766156807050383  3.5486201053471227
  2.1221149738738361 11.6561580042192681  3.6726946778878649
  7.2007368685292104 11.6694788607280380  3.6579286229077863
 12.2793587042561771 11.6827997364795539  3.6431626684594391
 -1.4560971446578379  3.8751938804716572 10.6561944929895240
  3.6225246302687601  3.8885145666539698 10.6414283973269868
  8.7011465602102511  3.9018354590555657 10.6266624743075973
  0.1894213231033682 10.6813779491762553 10.7507370011115615
  5.2680431668407914 10.6946986678331655 10.7359708764192021
 10.3466650454727613 10.7080195732974470 10.7212049250619721
  4.3149525780063298  0.9946040376521290  3.5797057238254877
  9.3935744082725616  1.0079248998236752  3.5649397276129888
 14.4721962398723463  1.0212456285604412  3.5501735457615804
  5.9604710512068166  7.8007881035815680  3.6742482340888514
 11.0390929520513925  7.8141090312025199  3.6594822366704398
 16.1177147424174620  7.8274296909528749  3.6447160673874208
  2.3822589130366230  0.0198238488964278 10.6577479956271564
  7.4608807240328243  0.0331447274104301 10.6429820500404286
 12.5395026092516897  0.0464655573795153 10.6282158801213651
  4.0277773972189665  6.8260079084447316 10.7522905723333331
  9.1063992917080352  6.8393287747840841 10.7375245711274090
 14.1850210969030517  6.8526494824070969 10.7227584530035660
  5.7017399304045142  5.6190501501945906  1.9671356222538099
 10.7803617199205171  5.6323709250885994  1.9523696304520461
 15.8589835304653182  5.6456917787592467  1.9376035828705052
  7.3472584572513924 12.4252342189687628  2.0616781009925580
 12.4258802464915945 12.4385550739453343  2.0469120485185095
 17.5045020522251491 12.4518758120105435  2.0321459989538364
  3.7690462403345659  4.6442699606846443  9.0451780119697567
  8.8476680699518440  4.6575907632153015  9.0304119338524629
 13.9262898895208984  4.6709116142968217  9.0156458842298299
  5.4145647454130916 11.4504539759874575  9.1397204881205258
 10.4931865916074987 11.4637748681318357  9.1249544524647295
 15.5718083994721059 11.4770957070526372  9.1101884155676931
 -0.9101911029935466  0.2255281949858934  5.1907223895419579
  4.1684307049318665  0.2388490500560488  5.1759563114789700
  9.2470525898562883  0.2521699575875881  5.1611902919601551
  0.7353274066897062  7.0317122429111238  5.2852648818478221
  5.8139491887078378  7.0450331293787940  5.2704988538304720
 10.8925710447244839  7.0583539820751069  5.2557328007842052
 -2.8428847131543251 -0.7492519012071318 12.2687647896580589
  2.2357370699787502 -0.7359311586936694 12.2539986606531492
  7.3143589262041067 -0.7226102029037440 12.2392326324491574
 -1.1973662469400164  6.0569320700443683 12.3633071853005507
  3.8812555321859930  6.0702529621743206 12.3485412031162216
  8.9598774530412850  6.0835738391916374 12.3337750868591307
  3.7400791017106920  3.3448719818453667  2.6715665601109815
  8.8187010945548305  3.3581928058275436  2.6568004769467257
 13.8973226923350968  3.3715137630656677  2.6420343819139687
  5.3855976275833406 10.1510560079914516  2.7661090679628102
 10.4642194436608413 10.1643769224262410  2.7513430377664130
 15.5428412009146655 10.1776977189468116  2.7365769475776411
  1.8073854056014278  2.3700918037424770  9.7496089310341496
  6.8860074062229799  2.3834126200143531  9.7348428480642628
 11.9646289444686467  2.3967335462357129  9.7200768045719688
  3.4529040161273485  9.1762757930468606  9.8441513458564458
  8.5315258650606971  9.1895967524463611  9.8293853123324304
 13.6101475398385201  9.2029175538340713  9.8146192334568561
  1.0514703873948033  2.4997056678379876  4.4862913514391423
  6.1300922018934267  2.5130264769317479  4.4715252518503084
 11.2087141101706109  2.5263473699083456  4.4567593107487316
  2.6969890648430055  9.3058896163416360  4.5808338089998779
  7.7756106950930635  9.3192105530083129  4.5660677570667954
 12.8542325729162279  9.3325314257374501  4.5513017877681925
 -0.8812232254636704  1.5249255230570691 11.5643336419157254
  4.1973986207913683  1.5382462757995514 11.5495675620908003
  9.2760205727397711  1.5515672309792330 11.5348015488105116
  0.7642953595726540  8.3311094247201911 11.6588761976401596
  5.8429170093619431  8.3444304143814580 11.6441100952030183
 10.9215389945857257  8.3577513169007176 11.6293441007990666
  3.9325585624775474  4.0729915657024991  1.0614013167114267
  9.0111805918679408  4.0863123339607625  1.0466352786698958
 14.0898022477088478  4.0996334325355068  1.0318693730471413
  5.5780771011218029 10.8791756297263316  1.1559437346043144
 10.6566988794729873 10.8924965531626938  1.1411777699952221
 15.7353207883883606 10.9058174054104668  1.1264117667208393
  1.9998648374394259  3.0982113547233192  8.1394435569209467
  7.0784869113564000  3.1115321467205783  8.1246775988158735
 12.1571085292701628  3.1248532678810319  8.1099116377306046
  3.6453835022051311  9.9043953483868137  8.2339861191855768
  8.7240053199439060  9.9177162433798198  8.2192201475493469
 13.8026270398891651  9.9310373199516153  8.2044541016120576
  0.8589898875888941  1.7715871926910949  6.0964567462445105
  5.9376118034661172  1.7849082015910627  6.0816908261756746
 11.0162336913709353  1.7982290547300062  6.0669246767144482
  2.5045086122621911  8.5777711473470024  6.1909992293845129
  7.5831302714364250  8.5910922678543393  6.1762333219833057
 12.6617521897379071  8.6044131488854561  6.1614671985665286
 -1.0737037563617875  0.7968070214676587 13.1744991384386090
  4.0049182668081524  0.8101278836327573 13.1597331217466369
  9.0835401056583756  0.8234488180731936 13.1449670935457732
  0.5718149264022441  7.6029909845088337 13.2690415227669778
  5.6504365794358096  7.6163120775794173 13.2542756947284524
 10.7290585954864923  7.6296328863750071 13.2395096095327300
  2.2344161831349640  1.3339543777586207  1.1743155009144268
  7.3130382496985504  1.3472750021839262  1.1595501426841197
 12.3916597744864063  1.3605960500036336  1.1447843846502803
  3.8799346807198676  8.1401384095656173  1.2688585147412337
  8.9585564858203099  8.1534592715205818  1.2540928155225834
 14.0371785198808272  8.1667799857678443  1.2393263837142876
  0.3017225911759335  0.3591741256044149  8.2523578943901192
  5.3803446320445287  0.3724948832621326  8.2375923988710813
 10.4589661518455994  0.3858158145678537  8.2228266232531873
  1.9472410917167597  7.1653580406222623  8.3469006379551693
  7.0258628415907660  7.1786791388728322  8.3321351619812027
 12.1044846569590323  7.1919999679817765  8.3173688056861987
  2.5571339713240802  4.5106225586097102  5.9835422847051394
  7.6357558009703972  4.5239433153416151  5.9687766022351409
 12.7143776736990599  4.5372642873710873  5.9540106401314041
  4.2026525822269711 11.3168065011375489  6.0780847804166225
  9.2812743075351669 11.3301275582632410  6.0633188938338902
 14.3598958551256981 11.3434483787861637  6.0485535919493865
  0.6244401200007609  3.5358425625045493 13.0615847573397232
  5.7030620438239383  3.5491630524801718 13.0468188210082889
 10.7816838710933247  3.5624839235730819 13.0320528458289111
  2.2699588895855412 10.3420263557301997 13.1561269898772775
  7.3485803817636635 10.3553474626451383 13.1413612394322268
 12.4272022716947834 10.3686680763670278 13.1265959298280457
  1.2041064314024013  0.1203451712134590  0.4536158516688958
  6.2827283345286808  0.1336661590435715  0.4388497881395131
 11.3613502384194476  0.1469868278450949  0.4240840291779257
  2.8496249198071437  6.9265291997798020  0.5481583819195754
  7.9282467989177938  6.9398502105707678  0.5333923860041661
 13.0068687034687187  6.9531711352485122  0.5186262390049827
 -0.7285872583754108 -0.8544349404867232  7.5316582262920919
  4.3500346524843323 -0.8411140081932703  7.5168921682904903
  9.4286566118722117 -0.8277932978911264  7.5021263649029102
  0.9169313018147506  5.9517492518350483  7.6262005254877989
  5.9955531933119577  5.9650699592820988  7.6114347784884808
 11.0741750705111457  5.9783908666248697  7.5966687785405576
  3.5874433483243560  5.7242349419271985  6.7042390261171620
  8.6660652699291383  5.7375556838527295  6.6894730917679510
 13.7446870145233806  5.7508766073530131  6.6747070735481238
  5.2329618934148483 12.5304190640455175  6.7987814522550565
 10.3115837676300668 12.5437397583339418  6.7840156668511566
 15.3902056270166820 12.5570606787488170  6.7692497315839564
  1.6547497295736924  4.7494545585101688 13.7822816446278615
  6.7333717272098141  4.7627755114706529 13.7675154443421004
 11.8119934205034767  4.7760965025326270 13.7527493827854475
  3.3002681972518353 11.5556388971667996 13.8768238100645647
  8.3788900937933786 11.5689595077831946 13.8620581103314464
 13.4575119870880773 11.5822804746507870 13.8472920692518944
