super cell
        1.0000000000
  14.881384969497063   0.000000000000000   0.000000000000000
   0.000000000000000  18.797570130030447   0.000000000000000
   0.000000000000000   0.000000000000000  13.692321078043909
  192  192
 Direct
   0.470271257634142   0.070633303485881   0.496387097231946
   0.970271257634142   0.070633303485881   0.496387097231946
   0.470271257634142   0.570633303485881   0.496387097231946
   0.970271257634142   0.570633303485881   0.496387097231946
   0.470271257634142   0.070633303485881   0.996387097231946
   0.970271257634142   0.070633303485881   0.996387097231946
   0.470271257634142   0.570633303485881   0.996387097231946
   0.970271257634142   0.570633303485881   0.996387097231946
   0.431497832574315   0.023003291570530   0.062783682406732
   0.931497832574315   0.023003291570530   0.062783682406732
   0.431497832574315   0.523003291570530   0.062783682406732
   0.931497832574315   0.523003291570530   0.062783682406732
   0.431497832574315   0.023003291570530   0.562783682406732
   0.931497832574315   0.023003291570530   0.562783682406732
   0.431497832574315   0.523003291570530   0.562783682406732
   0.931497832574315   0.523003291570530   0.562783682406732
   0.038578806856297   0.047578413627136   0.433612223042043
   0.538578806856297   0.047578413627136   0.433612223042043
   0.038578806856297   0.547578413627136   0.433612223042043
   0.538578806856297   0.547578413627136   0.433612223042043
   0.038578806856297   0.047578413627136   0.933612223042043
   0.538578806856297   0.047578413627136   0.933612223042043
   0.038578806856297   0.547578413627136   0.933612223042043
   0.538578806856297   0.547578413627136   0.933612223042043
   0.461421195331432   0.452421585693290   0.066387782476902
   0.961421195331432   0.452421585693290   0.066387782476902
   0.461421195331432   0.952421585693290   0.066387782476902
   0.961421195331432   0.952421585693290   0.066387782476902
   0.461421195331432   0.452421585693290   0.566387782476902
   0.961421195331432   0.452421585693290   0.566387782476902
   0.461421195331432   0.952421585693290   0.566387782476902
   0.961421195331432   0.952421585693290   0.566387782476902
   0.068502167665788   0.476996708429466   0.437216319587324
   0.568502167665788   0.476996708429466   0.437216319587324
   0.068502167665788   0.976996708429466   0.437216319587324
   0.568502167665788   0.976996708429466   0.437216319587324
   0.068502167665788   0.476996708429466   0.937216319587324
   0.568502167665788   0.476996708429466   0.937216319587324
   0.068502167665788   0.976996708429466   0.937216319587324
   0.568502167665788   0.976996708429466   0.937216319587324
   0.029728745646164   0.429366696585177   0.003612907824432
   0.529728745646164   0.429366696585177   0.003612907824432
   0.029728745646164   0.929366696585177   0.003612907824432
   0.529728745646164   0.929366696585177   0.003612907824432
   0.029728745646164   0.429366696585177   0.503612907824432
   0.529728745646164   0.429366696585177   0.503612907824432
   0.029728745646164   0.929366696585177   0.503612907824432
   0.529728745646164   0.929366696585177   0.503612907824432
   0.279728742199467   0.320633294172926   0.496387096667861
   0.779728742199467   0.320633294172926   0.496387096667861
   0.279728742199467   0.820633294172926   0.496387096667861
   0.779728742199467   0.820633294172926   0.496387096667861
   0.279728742199467   0.320633294172926   0.996387096667861
   0.779728742199467   0.320633294172926   0.996387096667861
   0.279728742199467   0.820633294172926   0.996387096667861
   0.779728742199467   0.820633294172926   0.996387096667861
   0.470271254796259   0.179366698935776   0.246387089938474
   0.970271254796259   0.179366698935776   0.246387089938474
   0.470271254796259   0.679366698935776   0.246387089938474
   0.970271254796259   0.679366698935776   0.246387089938474
   0.470271254796259   0.179366698935776   0.746387089938474
   0.970271254796259   0.179366698935776   0.746387089938474
   0.470271254796259   0.679366698935776   0.746387089938474
   0.970271254796259   0.679366698935776   0.746387089938474
   0.279728735616935   0.429366695758272   0.246387106039607
   0.779728735616935   0.429366695758272   0.246387106039607
   0.279728735616935   0.929366695758272   0.246387106039607
   0.779728735616935   0.929366695758272   0.246387106039607
   0.279728735616935   0.429366695758272   0.746387106039607
   0.779728735616935   0.429366695758272   0.746387106039607
   0.279728735616935   0.929366695758272   0.746387106039607
   0.779728735616935   0.929366695758272   0.746387106039607
   0.220271260768019   0.179366704279701   0.003612902768054
   0.720271260768019   0.179366704279701   0.003612902768054
   0.220271260768019   0.679366704279701   0.003612902768054
   0.720271260768019   0.679366704279701   0.003612902768054
   0.220271260768019   0.179366704279701   0.503612902768054
   0.720271260768019   0.179366704279701   0.503612902768054
   0.220271260768019   0.679366704279701   0.503612902768054
   0.720271260768019   0.679366704279701   0.503612902768054
   0.029728742365858   0.320633301107570   0.253612909402725
   0.529728742365858   0.320633301107570   0.253612909402725
   0.029728742365858   0.820633301107570   0.253612909402725
   0.529728742365858   0.820633301107570   0.253612909402725
   0.029728742365858   0.320633301107570   0.753612909402725
   0.529728742365858   0.320633301107570   0.753612909402725
   0.029728742365858   0.820633301107570   0.753612909402725
   0.529728742365858   0.820633301107570   0.753612909402725
   0.220271261768467   0.070633302714765   0.253612898463969
   0.720271261768467   0.070633302714765   0.253612898463969
   0.220271261768467   0.570633302714765   0.253612898463969
   0.720271261768467   0.570633302714765   0.253612898463969
   0.220271261768467   0.070633302714765   0.753612898463969
   0.720271261768467   0.070633302714765   0.753612898463969
   0.220271261768467   0.570633302714765   0.753612898463969
   0.720271261768467   0.570633302714765   0.753612898463969
   0.318502165676755   0.273003290156127   0.062783679931826
   0.818502165676755   0.273003290156127   0.062783679931826
   0.318502165676755   0.773003290156127   0.062783679931826
   0.818502165676755   0.773003290156127   0.062783679931826
   0.318502165676755   0.273003290156127   0.562783679931826
   0.818502165676755   0.273003290156127   0.562783679931826
   0.318502165676755   0.773003290156127   0.562783679931826
   0.818502165676755   0.773003290156127   0.562783679931826
   0.431497834343872   0.226996706678586   0.312783683167094
   0.931497834343872   0.226996706678586   0.312783683167094
   0.431497834343872   0.726996706678586   0.312783683167094
   0.931497834343872   0.726996706678586   0.312783683167094
   0.431497834343872   0.226996706678586   0.812783683167094
   0.931497834343872   0.226996706678586   0.812783683167094
   0.431497834343872   0.726996706678586   0.812783683167094
   0.931497834343872   0.726996706678586   0.812783683167094
   0.318502172339806   0.476996706790727   0.312783685707835
   0.818502172339806   0.476996706790727   0.312783685707835
   0.318502172339806   0.976996706790727   0.312783685707835
   0.818502172339806   0.976996706790727   0.312783685707835
   0.318502172339806   0.476996706790727   0.812783685707835
   0.818502172339806   0.476996706790727   0.812783685707835
   0.318502172339806   0.976996706790727   0.812783685707835
   0.818502172339806   0.976996706790727   0.812783685707835
   0.181497834236189   0.226996708418389   0.437216322584511
   0.681497834236189   0.226996708418389   0.437216322584511
   0.181497834236189   0.726996708418389   0.437216322584511
   0.681497834236189   0.726996708418389   0.437216322584511
   0.181497834236189   0.226996708418389   0.937216322584511
   0.681497834236189   0.226996708418389   0.937216322584511
   0.181497834236189   0.726996708418389   0.937216322584511
   0.681497834236189   0.726996708418389   0.937216322584511
   0.068502165490198   0.273003293349541   0.187216318806204
   0.568502165490198   0.273003293349541   0.187216318806204
   0.068502165490198   0.773003293349541   0.187216318806204
   0.568502165490198   0.773003293349541   0.187216318806204
   0.068502165490198   0.273003293349541   0.687216318806203
   0.568502165490198   0.273003293349541   0.687216318806203
   0.068502165490198   0.773003293349541   0.687216318806203
   0.568502165490198   0.773003293349541   0.687216318806203
   0.181497827867296   0.023003291732722   0.187216316054058
   0.681497827867296   0.023003291732722   0.187216316054058
   0.181497827867296   0.523003291732722   0.187216316054058
   0.681497827867296   0.523003291732722   0.187216316054058
   0.181497827867296   0.023003291732722   0.687216316054058
   0.681497827867296   0.023003291732722   0.687216316054058
   0.181497827867296   0.523003291732722   0.687216316054058
   0.681497827867296   0.523003291732722   0.687216316054058
   0.211421196244057   0.297578403429345   0.433612228505946
   0.711421196244057   0.297578403429345   0.433612228505946
   0.211421196244057   0.797578403429345   0.433612228505946
   0.711421196244057   0.797578403429345   0.433612228505946
   0.211421196244057   0.297578403429345   0.933612228505946
   0.711421196244057   0.297578403429345   0.933612228505946
   0.211421196244057   0.797578403429345   0.933612228505946
   0.711421196244057   0.797578403429345   0.933612228505946
   0.038578802011142   0.202421589952241   0.183612218800891
   0.538578802011142   0.202421589952241   0.183612218800891
   0.038578802011142   0.702421589952241   0.183612218800891
   0.538578802011142   0.702421589952241   0.183612218800891
   0.038578802011142   0.202421589952241   0.683612218800891
   0.538578802011142   0.202421589952241   0.683612218800891
   0.038578802011142   0.702421589952241   0.683612218800891
   0.538578802011142   0.702421589952241   0.683612218800891
   0.211421188859237   0.452421587058502   0.183612232783445
   0.711421188859237   0.452421587058502   0.183612232783445
   0.211421188859237   0.952421587058502   0.183612232783445
   0.711421188859237   0.952421587058502   0.183612232783445
   0.211421188859237   0.452421587058502   0.683612232783445
   0.711421188859237   0.452421587058502   0.683612232783445
   0.211421188859237   0.952421587058502   0.683612232783445
   0.711421188859237   0.952421587058502   0.683612232783445
   0.288578805722175   0.202421595535771   0.066387770279658
   0.788578805722175   0.202421595535771   0.066387770279658
   0.288578805722175   0.702421595535771   0.066387770279658
   0.788578805722175   0.702421595535771   0.066387770279658
   0.288578805722175   0.202421595535771   0.566387770279658
   0.788578805722175   0.202421595535771   0.566387770279658
   0.288578805722175   0.702421595535771   0.566387770279658
   0.788578805722175   0.702421595535771   0.566387770279658
   0.461421196097642   0.297578409373231   0.316387779726011
   0.961421196097642   0.297578409373231   0.316387779726011
   0.461421196097642   0.797578409373231   0.316387779726011
   0.961421196097642   0.797578409373231   0.316387779726011
   0.461421196097642   0.297578409373231   0.816387779726012
   0.961421196097642   0.297578409373231   0.816387779726012
   0.461421196097642   0.797578409373231   0.816387779726012
   0.961421196097642   0.797578409373231   0.816387779726012
   0.288578809471705   0.047578411976169   0.316387772621820
   0.788578809471705   0.047578411976169   0.316387772621820
   0.288578809471705   0.547578411976169   0.316387772621820
   0.788578809471705   0.547578411976169   0.316387772621820
   0.288578809471705   0.047578411976169   0.816387772621820
   0.788578809471705   0.047578411976169   0.816387772621820
   0.288578809471705   0.547578411976169   0.816387772621820
   0.788578809471705   0.547578411976169   0.816387772621820
   0.447419355089297   0.125361469520970   0.493475562966919
   0.947419355089297   0.125361469520970   0.493475562966919
   0.447419355089297   0.625361469520970   0.493475562966919
   0.947419355089297   0.625361469520970   0.493475562966919
   0.447419355089297   0.125361469520970   0.993475562966919
   0.947419355089297   0.125361469520970   0.993475562966919
   0.447419355089297   0.625361469520970   0.993475562966919
   0.947419355089297   0.625361469520970   0.993475562966919
   0.378181377713253   0.040333844677327   0.111187792597172
   0.878181377713253   0.040333844677327   0.111187792597172
   0.378181377713253   0.540333844677327   0.111187792597172
   0.878181377713253   0.540333844677327   0.111187792597172
   0.378181377713253   0.040333844677327   0.611187792597172
   0.878181377713253   0.040333844677327   0.611187792597172
   0.378181377713253   0.540333844677327   0.611187792597172
   0.878181377713253   0.540333844677327   0.611187792597172
   0.068151657678533   0.084231189455575   0.381762645834051
   0.568151657678533   0.084231189455575   0.381762645834051
   0.068151657678533   0.584231189455575   0.381762645834051
   0.568151657678533   0.584231189455575   0.381762645834051
   0.068151657678533   0.084231189455575   0.881762645834051
   0.568151657678533   0.084231189455575   0.881762645834051
   0.068151657678533   0.584231189455575   0.881762645834051
   0.568151657678533   0.584231189455575   0.881762645834051
   0.431848342457977   0.415768810020613   0.118237356182142
   0.931848342457977   0.415768810020613   0.118237356182142
   0.431848342457977   0.915768810020613   0.118237356182142
   0.931848342457977   0.915768810020613   0.118237356182142
   0.431848342457977   0.415768810020613   0.618237356182142
   0.931848342457977   0.415768810020613   0.618237356182142
   0.431848342457977   0.915768810020613   0.618237356182142
   0.931848342457977   0.915768810020613   0.618237356182142
   0.121818622282239   0.459666154678936   0.388812209424987
   0.621818622282239   0.459666154678936   0.388812209424987
   0.121818622282239   0.959666154678936   0.388812209424987
   0.621818622282239   0.959666154678936   0.388812209424987
   0.121818622282239   0.459666154678936   0.888812209424987
   0.621818622282239   0.459666154678936   0.888812209424987
   0.121818622282239   0.959666154678936   0.888812209424987
   0.621818622282239   0.959666154678936   0.888812209424987
   0.052580645146053   0.374638529695415   0.006524439258839
   0.552580645146053   0.374638529695415   0.006524439258839
   0.052580645146053   0.874638529695415   0.006524439258839
   0.552580645146053   0.874638529695415   0.006524439258839
   0.052580645146053   0.374638529695415   0.506524439258839
   0.552580645146053   0.374638529695415   0.506524439258839
   0.052580645146053   0.874638529695415   0.506524439258839
   0.552580645146053   0.874638529695415   0.506524439258839
   0.302580644327721   0.375361475112298   0.493475561655889
   0.802580644327721   0.375361475112298   0.493475561655889
   0.302580644327721   0.875361475112298   0.493475561655889
   0.802580644327721   0.875361475112298   0.493475561655889
   0.302580644327721   0.375361475112298   0.993475561655889
   0.802580644327721   0.375361475112298   0.993475561655889
   0.302580644327721   0.875361475112298   0.993475561655889
   0.802580644327721   0.875361475112298   0.993475561655889
   0.447419353496061   0.124638527853138   0.243475558365355
   0.947419353496061   0.124638527853138   0.243475558365355
   0.447419353496061   0.624638527853138   0.243475558365355
   0.947419353496061   0.624638527853138   0.243475558365355
   0.447419353496061   0.124638527853138   0.743475558365355
   0.947419353496061   0.124638527853138   0.743475558365355
   0.447419353496061   0.624638527853138   0.743475558365355
   0.947419353496061   0.624638527853138   0.743475558365355
   0.302580647546582   0.374638524552741   0.243475563509283
   0.802580647546582   0.374638524552741   0.243475563509283
   0.302580647546582   0.874638524552741   0.243475563509283
   0.802580647546582   0.874638524552741   0.243475563509283
   0.302580647546582   0.374638524552741   0.743475563509283
   0.802580647546582   0.374638524552741   0.743475563509283
   0.302580647546582   0.874638524552741   0.743475563509283
   0.802580647546582   0.874638524552741   0.743475563509283
   0.197419355890476   0.124638524061213   0.006524440272932
   0.697419355890476   0.124638524061213   0.006524440272932
   0.197419355890476   0.624638524061213   0.006524440272932
   0.697419355890476   0.624638524061213   0.006524440272932
   0.197419355890476   0.124638524061213   0.506524440272932
   0.697419355890476   0.124638524061213   0.506524440272932
   0.197419355890476   0.624638524061213   0.506524440272932
   0.697419355890476   0.624638524061213   0.506524440272932
   0.052580646518608   0.375361471352891   0.256524443575198
   0.552580646518608   0.375361471352891   0.256524443575198
   0.052580646518608   0.875361471352891   0.256524443575198
   0.552580646518608   0.875361471352891   0.256524443575198
   0.052580646518608   0.375361471352891   0.756524443575198
   0.552580646518608   0.375361471352891   0.756524443575198
   0.052580646518608   0.875361471352891   0.756524443575198
   0.552580646518608   0.875361471352891   0.756524443575198
   0.197419352492732   0.125361474634771   0.256524438652156
   0.697419352492732   0.125361474634771   0.256524438652156
   0.197419352492732   0.625361474634771   0.256524438652156
   0.697419352492732   0.625361474634771   0.256524438652156
   0.197419352492732   0.125361474634771   0.756524438652156
   0.697419352492732   0.125361474634771   0.756524438652156
   0.197419352492732   0.625361474634771   0.756524438652156
   0.697419352492732   0.625361474634771   0.756524438652156
   0.371818615975205   0.290333844593508   0.111187787809123
   0.871818615975205   0.290333844593508   0.111187787809123
   0.371818615975205   0.790333844593508   0.111187787809123
   0.871818615975205   0.790333844593508   0.111187787809123
   0.371818615975205   0.290333844593508   0.611187787809123
   0.871818615975205   0.290333844593508   0.611187787809123
   0.371818615975205   0.790333844593508   0.611187787809123
   0.871818615975205   0.790333844593508   0.611187787809123
   0.378181380863863   0.209666152212542   0.361187787815592
   0.878181380863863   0.209666152212542   0.361187787815592
   0.378181380863863   0.709666152212542   0.361187787815592
   0.878181380863863   0.709666152212542   0.361187787815592
   0.378181380863863   0.209666152212542   0.861187787815592
   0.878181380863863   0.209666152212542   0.861187787815592
   0.378181380863863   0.709666152212542   0.861187787815592
   0.878181380863863   0.709666152212542   0.861187787815592
   0.371818616552841   0.459666155514825   0.361187784539585
   0.871818616552841   0.459666155514825   0.361187784539585
   0.371818616552841   0.959666155514825   0.361187784539585
   0.871818616552841   0.959666155514825   0.361187784539585
   0.371818616552841   0.459666155514825   0.861187784539585
   0.871818616552841   0.459666155514825   0.861187784539585
   0.371818616552841   0.959666155514825   0.861187784539585
   0.871818616552841   0.959666155514825   0.861187784539585
   0.128181384026621   0.209666154432676   0.388812214327536
   0.628181384026621   0.209666154432676   0.388812214327536
   0.128181384026621   0.709666154432676   0.388812214327536
   0.628181384026621   0.709666154432676   0.388812214327536
   0.128181384026621   0.209666154432676   0.888812214327536
   0.628181384026621   0.209666154432676   0.888812214327536
   0.128181384026621   0.709666154432676   0.888812214327536
   0.628181384026621   0.709666154432676   0.888812214327536
   0.121818619395343   0.290333847151931   0.138812214318747
   0.621818619395343   0.290333847151931   0.138812214318747
   0.121818619395343   0.790333847151931   0.138812214318747
   0.621818619395343   0.790333847151931   0.138812214318747
   0.121818619395343   0.290333847151931   0.638812214318747
   0.621818619395343   0.290333847151931   0.638812214318747
   0.121818619395343   0.790333847151931   0.638812214318747
   0.621818619395343   0.790333847151931   0.638812214318747
   0.128181383688694   0.040333843504566   0.138812217441689
   0.628181383688694   0.040333843504566   0.138812217441689
   0.128181383688694   0.540333843504566   0.138812217441689
   0.628181383688694   0.540333843504566   0.138812217441689
   0.128181383688694   0.040333843504566   0.638812217441688
   0.628181383688694   0.040333843504566   0.638812217441688
   0.128181383688694   0.540333843504566   0.638812217441688
   0.628181383688694   0.540333843504566   0.638812217441688
   0.181848342741125   0.334231186831818   0.381762643163846
   0.681848342741125   0.334231186831818   0.381762643163846
   0.181848342741125   0.834231186831818   0.381762643163846
   0.681848342741125   0.834231186831818   0.381762643163846
   0.181848342741125   0.334231186831818   0.881762643163846
   0.681848342741125   0.334231186831818   0.881762643163846
   0.181848342741125   0.834231186831818   0.881762643163846
   0.681848342741125   0.834231186831818   0.881762643163846
   0.068151658655706   0.165768814268010   0.131762641005430
   0.568151658655706   0.165768814268010   0.131762641005430
   0.068151658655706   0.665768814268010   0.131762641005430
   0.568151658655706   0.665768814268010   0.131762641005430
   0.068151658655706   0.165768814268010   0.631762641005430
   0.568151658655706   0.165768814268010   0.631762641005430
   0.068151658655706   0.665768814268010   0.631762641005430
   0.568151658655706   0.665768814268010   0.631762641005430
   0.181848338068184   0.415768807517388   0.131762639792509
   0.681848338068183   0.415768807517388   0.131762639792509
   0.181848338068184   0.915768807517388   0.131762639792509
   0.681848338068183   0.915768807517388   0.131762639792509
   0.181848338068184   0.415768807517388   0.631762639792509
   0.681848338068183   0.415768807517388   0.631762639792509
   0.181848338068184   0.915768807517388   0.631762639792509
   0.681848338068183   0.915768807517388   0.631762639792509
   0.318151657400735   0.165768812065217   0.118237358954403
   0.818151657400735   0.165768812065217   0.118237358954403
   0.318151657400735   0.665768812065217   0.118237358954403
   0.818151657400735   0.665768812065217   0.118237358954403
   0.318151657400735   0.165768812065217   0.618237358954403
   0.818151657400735   0.165768812065217   0.618237358954403
   0.318151657400735   0.665768812065217   0.618237358954403
   0.818151657400735   0.665768812065217   0.618237358954403
   0.431848341458918   0.334231185223984   0.368237361158947
   0.931848341458918   0.334231185223984   0.368237361158947
   0.431848341458918   0.834231185223984   0.368237361158947
   0.931848341458918   0.834231185223984   0.368237361158947
   0.431848341458918   0.334231185223984   0.868237361158947
   0.931848341458918   0.334231185223984   0.868237361158947
   0.431848341458918   0.834231185223984   0.868237361158947
   0.931848341458918   0.834231185223984   0.868237361158947
   0.318151662037289   0.084231191361574   0.368237362174092
   0.818151662037290   0.084231191361574   0.368237362174092
   0.318151662037289   0.584231191361574   0.368237362174092
   0.818151662037290   0.584231191361574   0.368237362174092
   0.318151662037289   0.084231191361574   0.868237362174092
   0.818151662037290   0.084231191361574   0.868237362174092
   0.318151662037289   0.584231191361574   0.868237362174092
   0.818151662037290   0.584231191361574   0.868237362174092
