 C  H  O 
 1.0000000000000000
    26.5123028235539095   -0.0000139341698580    0.0000004157702280
    -0.0000062467446130   11.7691778862222751   -0.0000024371642840
     0.0000003885879420   -0.0000047835980960   23.3215269644902712
 C   H   O  
 192 384 192
Cartesian
  4.4679775740048067  2.7239736738812530  1.2219573378972779
 17.7241289724937090  2.7239667944749204  1.2219575307040402
  4.4679754832519949  6.6470330134278779  1.2219565087960529
 17.7241268379531398  6.6470260732702897  1.2219566922014984
  4.4679733944395625 10.5700923147178347  1.2219557029059733
 17.7241247739075369 10.5700853463113749  1.2219558806833235
  4.4679776700880236  2.7239727205329243  7.0523391942714087
 17.7241290869408523  2.7239659033603636  7.0523395032932754
  4.4679755470284146  6.6470320077599387  7.0523383801718795
 17.7241269941561441  6.6470252317709164  7.0523386888490904
  4.4679734813197465 10.5700912979200368  7.0523375598767393
 17.7241248851944135 10.5700844279733133  7.0523377953661335
  4.4679777431026846  2.7239718549523757 12.8827211183551515
 17.7241291660030598  2.7239646766515935 12.8827211823759100
  4.4679756440146532  6.6470311127952959 12.8827202917327028
 17.7241271031136982  6.6470240398051237 12.8827203978226521
  4.4679735346400662 10.5700904084598708 12.8827194520585451
 17.7241249671901606 10.5700833053276657 12.8827195885570536
  4.4679778362800278  2.7239704520857795 18.7131027839663417
 17.7241292787761253  2.7239631916289508 18.7131027720061383
  4.4679757996260197  6.6470297643617302 18.7131020091828759
 17.7241272535496286  6.6470224628163601 18.7131019324443493
  4.4679736688846434 10.5700890493099458 18.7131011873261635
 17.7241251830452384 10.5700818168593340 18.7131011694823783
  8.7881673051314149  1.1990947724626917  4.1371482919113163
 22.0443187733513959  1.1990880948750744  4.1371482756463793
  8.7881652382991682  5.1221540545997328  4.1371474817694160
 22.0443166950937446  5.1221472911467698  4.1371474277848401
  8.7881631692261841  9.0452133247149558  4.1371466987248571
 22.0443146180163687  9.0452067324017733  4.1371466557238037
  8.7881674286867071  1.1990934114788829  9.9675301278067145
 22.0443188148931917  1.1990865337231358  9.9675302453604839
  8.7881653523423395  5.1221526576710774  9.9675293211569151
 22.0443167737251571  5.1221458464078662  9.9675294306084226
  8.7881632839888102  9.0452119387458421  9.9675284987121184
 22.0443147154367161  9.0452050430655362  9.9675285951018555
  8.7881675602209963  1.1990920753960437 15.7979119701767594
 22.0443189090430600  1.1990855362261621 15.7979118327136483
  8.7881654451218232  5.1221513537552603 15.7979111326358268
 22.0443168304983388  5.1221449221102242 15.7979109697862530
  8.7881634070808126  9.0452106963205363 15.7979103234937561
 22.0443147482247177  9.0452041739179094 15.7979101893291709
  8.7881676149310763  1.1990910238919175 21.6282936044130558
 22.0443189655286176  1.1990846994382220 21.6282932844474374
  8.7881655371222536  5.1221503804925277 21.6282927897115869
 22.0443168957255224  5.1221439920171203 21.6282924728906956
  8.7881634732761107  9.0452096520432761 21.6282919881264846
 22.0443148877553696  9.0452032885505140 21.6282916429519965
 11.0960565500070132  3.1606276811829770  1.2219586413996553
 24.3522079759136112  3.1606201808834991  1.2219592384442055
 11.0960545028240283  7.0836869870756329  1.2219578310408590
 24.3522058875611300  7.0836794767249147  1.2219583971344949
 11.0960524074630182 11.0067462866606611  1.2219570128605071
 24.3522038361279840 11.0067388194835853  1.2219575990645981
 11.0960566558692761  3.1606265379762708  7.0523403770625066
 24.3522080808945525  3.1606194409732891  7.0523406703350773
 11.0960545846283711  7.0836858430285456  7.0523395375358362
 24.3522059970493849  7.0836787403764570  7.0523398563366948
 11.0960524911565788 11.0067451292599099  7.0523387414193781
 24.3522038981343840 11.0067380052400843  7.0523390432788435
 11.0960568088195579  3.1606254982750999 12.8827219947947889
 24.3522081482362225  3.1606183066953797 12.8827223001334730
 11.0960547345566134  7.0836848023539245 12.8827211862933684
 24.3522060242458700  7.0836775844333193 12.8827214803256531
 11.0960526356544218 11.0067440858295988 12.8827203606104561
 24.3522040014254024 11.0067369062556573 12.8827206505959708
 11.0960568468883860  3.1606243353423711 18.7131036910327495
 24.3522082131805284  3.1606167305879040 18.7131043565948509
 11.0960548001349100  7.0836836044654428 18.7131029087549372
 24.3522061525180362  7.0836759738817268 18.7131035958250820
 11.0960526906515131 11.0067429330686490 18.7131020724813943
 24.3522040769502510 11.0067352795740128 18.7131027411443114
  2.1600871647099487  0.7624420939448717  4.1371502512726828
 15.4162385200933656  0.7624350557103398  4.1371504779031802
  2.1600850497535684  4.6855013893702493  4.1371494684436305
 15.4162364298102599  4.6854942580709773  4.1371495284407187
  2.1600829458505482  8.6085606639749184  4.1371486318993371
 15.4162343388517495  8.6085535289851727  4.1371487531342099
  2.1600871561521524  0.7624405677159644  9.9675317758081388
 15.4162386457416964  0.7624335660656335  9.9675318469661889
  2.1600850773577034  4.6854998487573809  9.9675309137737038
 15.4162365276909821  4.6854928917395062  9.9675311348362179
  2.1600829679218028  8.6085591794483296  9.9675301399127108
 15.4162344081532812  8.6085521711918211  9.9675302319184578
  2.1600872819178685  0.7624392993000746 15.7979134718654759
 15.4162387484018080  0.7624325511542237 15.7979138175485510
  2.1600852272105078  4.6854986166560968 15.7979126612181560
 15.4162366788545988  4.6854918940522206 15.7979130102253986
  2.1600831114563439  8.6085579164172668 15.7979118215898602
 15.4162345791877247  8.6085512137809275 15.7979122044985303
  2.1600874558078806  0.7624384261488106 21.6282954645976844
 15.4162388504539987  0.7624316313260092 21.6282957962200513
  2.1600853850709405  4.6854977272675402 21.6282946686376114
 15.4162368189142711  4.6854909152262536 21.6282948879923964
  2.1600832741425755  8.6085569862722711 21.6282938183541944
 15.4162346282648706  8.6085502300353856 21.6282941375060567
  5.4548218802954471  2.4166522850738934  2.3183934818405896
 18.7109732559277973  2.4166453316284571  2.3183937138297797
  5.4548197944216872  6.3397115803261501  2.3183926731349445
 18.7109712285583711  6.3397046279111775  2.3183929186804058
  5.4548177185086919 10.2627708773513184  2.3183918595093318
 18.7109691137459677 10.2627639293400605  2.3183920827842939
  5.4548219671440847  2.4166511172421732  8.1487752678746066
 18.7109734240577126  2.4166441251040589  8.1487755782835745
  5.4548198979595579  6.3397104108566342  8.1487744625129164
 18.7109713377522553  6.3397034243433108  8.1487747634070651
  5.4548178099786266 10.2627697042262440  8.1487736451805564
 18.7109692360462034 10.2627627325755402  8.1487738994047838
  5.4548221425368952  2.4166498847892450 13.9791571480649761
 18.7109735473776340  2.4166428819261259 13.9791573189865765
  5.4548200478883757  6.3397091795062259 13.9791563235720258
 18.7109714283336821  6.3397021809121146 13.9791565025783822
  5.4548179839264561 10.2627684759025986 13.9791555203161799
 18.7109693917592814 10.2627614692771658 13.9791557238754400
  5.4548222050665824  2.4166486512535399 19.8095388375057055
 18.7109736109563443  2.4166416922282199 19.8095389691939125
  5.4548200977964445  6.3397079474002513 19.8095380218577404
 18.7109715230497429  6.3397009953291414 19.8095381531256685
  5.4548180372467669 10.2627672443245856 19.8095372164307584
 18.7109694516772826 10.2627602760182040 19.8095373619534136
  7.8013227965540342  1.5064160164748512  5.2335843187642110
 21.0574742828387116  1.5064089929651836  5.2335843821165433
  7.8013207263244917  5.4294753057967808  5.2335835002808802
 21.0574721591621739  5.4294682818807845  5.2335835822772765
  7.8013186355601469  9.3525346038158705  5.2335827069386402
 21.0574701193967684  9.3525275831016987  5.2335827514801370
  7.8013228732713182  1.5064148062866574 11.0639661057894205
 21.0574743314539603  1.5064078423141745 11.0639662494881623
  7.8013207847408399  5.4294740978335199 11.0639653020486630
 21.0574722563981211  5.4294671372739787 11.0639654367275355
  7.8013186792097775  9.3525334019508080 11.0639645091998648
 21.0574701074700350  9.3525264343182357 11.0639646625035262
  7.8013229669496313  1.5064136311649898 16.8943478969605572
 21.0574744051120675  1.5064066935764646 16.8943479515763322
  7.8013208692338809  5.4294729318586619 16.8943470878301127
 21.0574723366117418  5.4294659962611602 16.8943471202731708
  7.8013188015131760  9.3525322206508079 16.8943462603055181
 21.0574702286061708  9.3525252873623845 16.8943463274371339
  7.8013230844891588  1.5064124537893560 22.7247295874531368
 21.0574744802876488  1.5064054516402152 22.7247295923622765
  7.8013210345591251  5.4294717459082555 22.7247287499829227
 21.0574724104579829  5.4294647473925135 22.7247287796224953
  7.8013189406928563  9.3525310343132571 22.7247279394629871
 21.0574703316380756  9.3525240309329956 22.7247279537803095
 12.0828995489773501  3.4679459721349009  2.3183968703015858
 25.3390510135598461  3.4679390652806181  2.3183972977367708
 12.0828974551643125  7.3910052773378156  2.3183960521862410
 25.3390489351324923  7.3909983548281613  2.3183964820051424
 12.0828954025239188 11.3140645748757560  2.3183952507438255
 25.3390468289909627 11.3140576456420092  2.3183956503212295
 12.0828996894017120  3.4679448184593489  8.1487786496346484
 25.3390510724819578  3.4679378584606297  8.1487788829494416
 12.0828975960296230  7.3910041050646367  8.1487778210500679
 25.3390490101115020  7.3909971618359700  8.1487780739732614
 12.0828955139797696 11.3140633935389925  8.1487770053002588
 25.3390469173352280 11.3140564529753185  8.1487772608478561
 12.0828997885822371  3.4679436087453799 13.9791603408736300
 25.3390511471149722  3.4679366023166400 13.9791605697266892
 12.0828976845451397  7.3910028945493877 13.9791595109700175
 25.3390490677340452  7.3909958933191167 13.9791597648576271
 12.0828956063452662 11.3140621874640068 13.9791587027652575
 25.3390469953276956 11.3140551984265691 13.9791589514536962
 12.0828998375251384  3.4679423617998912 19.8095420184222526
 25.3390512653187017  3.4679354176978263 19.8095424455263860
 12.0828977556035380  7.3910016666846383 19.8095412134266944
 25.3390491780789056  7.3909947165457588 19.8095416591700371
 12.0828956901253637 11.3140609682364026 19.8095404071574279
 25.3390471156398682 11.3140540153082778 19.8095408432418161
  1.1732445750588376  0.4551225614227236  5.2335886929261637
 14.4293960229913321  0.4551155935519334  5.2335888795224887
  1.1732425367400556  4.3781818632754721  5.2335878517555576
 14.4293938964340995  4.3781748813438819  5.2335880677858153
  1.1732404367480236  8.3012411554225842  5.2335870459068117
 14.4293918332541597  8.3012341683038997  5.2335872491376563
  1.1732446574955671  0.4551213725712021 11.0639703411417880
 14.4293960335603799  0.4551144266954959 11.0639705630789926
  1.1732425782598606  4.3781806684261015 11.0639695208112965
 14.4293940287412337  4.3781737362413233 11.0639697141687812
  1.1732405095272955  8.3012399640397430 11.0639687102088562
 14.4293919138952980  8.3012330127653975 11.0639689150820200
  1.1732447982655922  0.4551202228964054 16.8943520387702932
 14.4293962320265354  0.4551132461743753 16.8943523245225933
  1.1732427039345248  4.3781795174377462 16.8943512380672338
 14.4293941269227908  4.3781725425144744 16.8943515299452933
  1.1732406195745462  8.3012388095681278 16.8943504232855091
 14.4293920432020908  8.3012318402270715 16.8943507262338102
  1.1732449382205605  0.4551190364334430 22.7247338429392691
 14.4293963331623516  0.4551120269418362 22.7247341531264695
  1.1732428417486791  4.3781783348472700 22.7247330404499728
 14.4293941800564145  4.3781713095305994 22.7247333714496591
  1.1732407589148866  8.3012376221190110 22.7247322171870216
 14.4293921516801280  8.3012306145081460 22.7247325242362379
  4.2890018284893836  3.6903836150316449  5.3825808829055513
 17.5451533287043517  3.6903765407921361  5.3825810715247320
  4.2889997473604291  7.6134429140428930  5.3825800824068724
 17.5451512310670310  7.6134358411757779  5.3825802665944469
  4.2889976601061637 11.5365022106010819  5.3825792604820517
 17.5451491228084109 11.5364951288065729  5.3825794620669711
  4.2890020709748100  3.6903821828928867 11.2129625416188397
 17.5451534402991243  3.6903754202738210 11.2129629262898689
  4.2889999939060974  7.6134414870642670 11.2129617331043239
 17.5451513665191641  7.6134347059896301 11.2129620931850074
  4.2889979159403602 11.5365007668510096 11.2129609316667089
 17.5451493022632796 11.5364940211882043 11.2129612872084703
  4.2890021782726464  3.6903811400154609 17.0433443863526044
 17.5451534145098762  3.6903745380342787 17.0433447235535880
  4.2890001121357093  7.6134404358489336 17.0433435562577493
 17.5451513280271669  7.6134338542709346 17.0433438784066880
  4.2889980211310323 11.5364997327075685 17.0433427615264534
 17.5451492651278294 11.5364931283298464 17.0433430963019212
  4.2890020368893307  3.6903802749004284 22.8737261438529700
 17.5451535004734396  3.6903732452188751 22.8737263955911807
  4.2889999879441865  7.6134395520822995 22.8737253524508937
 17.5451514131757058  7.6134325443783055 22.8737255851733572
  4.2889978878533226 11.5364988460477527 22.8737245444389039
 17.5451493027333676 11.5364918513499415 22.8737247733061402
  8.9671426467530448  0.2326866321443473  2.4673884477880934
 22.2232942648003728  0.2326794221216215  2.4673887231885812
  8.9671405754155948  4.1557459309449465  2.4673876421478793
 22.2232921454590304  4.1557387915621620  2.4673879418867051
  8.9671384825820208  8.0788052402644492  2.4673868172954183
 22.2232901122188196  8.0787980251416336  2.4673870679608796
  8.9671427096256373  0.2326856154392594  8.2977701125657930
 22.2232941824781172  0.2326785447360409  8.2977703794335369
  8.9671406206049422  4.1557449223464751  8.2977693044056497
 22.2232921118489557  4.1557378097209927  8.2977695675124679
  8.9671385148791742  8.0788042363321999  8.2977684994558416
 22.2232899727802611  8.0787971600545259  8.2977687932290394
  8.9671427421071286  0.2326845296769768 14.1281518208505688
 22.2232942714260346  0.2326770603109208 14.1281523206851087
  8.9671406304118495  4.1557438268743887 14.1281510150783429
 22.2232922171250671  4.1557363045522786 14.1281514965060371
  8.9671385767311111  8.0788031069877402 14.1281501961059917
 22.2232901324881666  8.0787956042466860 14.1281506935508503
  8.9671428428993210  0.2326831249956862 19.9585336579287791
 22.2232945950396328  0.2326755433793204 19.9585340625870273
  8.9671407968236849  4.1557423911230131 19.9585328323688422
 22.2232925078392043  4.1557348275306003 19.9585332585862147
  8.9671387072537385  8.0788017022081213 19.9585320225616734
 22.2232904547242143  8.0787941545308382 19.9585324591816935
 10.9170816660986087  2.1942161451163593  5.3825816386650960
 24.1732331368823168  2.1942092883702675  5.3825818386012259
 10.9170795776377290  6.1172754325228933  5.3825808321224908
 24.1732310502480381  6.1172686116002666  5.3825810503670484
 10.9170774618132924 10.0403347359421176  5.3825800186785839
 24.1732289722013256 10.0403278935420879  5.3825802335860269
 10.9170816900598595  2.1942148241171644 11.2129634305695376
 24.1732331311068371  2.1942080857803155 11.2129635516636625
 10.9170795877681179  6.1172741263436663 11.2129626047280162
 24.1732310628095632  6.1172674018717261 11.2129627404799450
 10.9170775155559188 10.0403334314259531 11.2129617947173461
 24.1732289677703100 10.0403266949411254 11.2129619167873376
 10.9170816797002015  2.1942136332197339 17.0433451573464794
 24.1732333769055288  2.1942073115922418 17.0433451339932489
 10.9170796184016829  6.1172729465717026 17.0433443479160829
 24.1732312986454687  6.1172665952762317 17.0433443040973991
 10.9170775392234489 10.0403322226714575 17.0433435306281922
 24.1732292253700045 10.0403259079782288 17.0433435139793588
 10.9170818818815505  2.1942126333262193 22.8737268345581057
 24.1732335503738760  2.1942061306781091 22.8737269247281070
 10.9170798201399695  6.1172719008585945 22.8737260303571723
 24.1732314650398479  6.1172654284478982 22.8737261029230368
 10.9170777183222221 10.0403312076127715 22.8737252259142991
 24.1732293737701056 10.0403246954315097 22.8737252781833718
  2.3390611816076348  1.7288515135306368  2.4673909599508606
 15.5952126719117032  1.7288446408933289  2.4673912332435761
  2.3390591279818875  5.6519108115508621  2.4673901268626564
 15.5952105333160898  5.6519040260372613  2.4673904600437555
  2.3390570215072852  9.5749701170692685  2.4673893242860352
 15.5952084326171203  9.5749632895337022  2.4673895951121980
  2.3390613830867375  1.7288506661810861  8.2977728115617317
 15.5952128338153972  1.7288437072009384  8.2977730306760442
  2.3390592771413377  5.6519099630535425  8.2977719985460254
 15.5952107980005348  5.6519029896748689  8.2977721879409323
  2.3390572024402654  9.5749692456686102  8.2977711903045996
 15.5952086454693184  9.5749623274597333  8.2977714340606976
  2.3390615881740895  1.7288494230605052 14.1281545000458593
 15.5952128875348262  1.7288422912669656 14.1281546629821495
  2.3390594862049658  5.6519087160246793 14.1281537024994535
 15.5952108086565246  5.6519015308573959 14.1281538564367128
  2.3390574013058791  9.5749680226735272 14.1281529050220289
 15.5952087240112185  9.5749608449591967 14.1281530668871369
  2.3390616190305540  1.7288478695160057 19.9585361033262991
 15.5952129388874727  1.7288408514523435 19.9585363370245723
  2.3390595404320895  5.6519071725686594 19.9585352943002441
 15.5952107986928556  5.6519001743015762 19.9585355717497563
  2.3390574473471855  9.5749664839327604 19.9585344902071462
 15.5952087494381129  9.5749594331602275 19.9585347384833334
  4.9644040833208498  1.8719472725468735  3.1211494651982576
 18.2205553978666970  1.8719403143106599  3.1211497031415907
  4.9644019765942886  5.7950065395088171  3.1211486654084917
 18.2205533489769955  5.7949996138935234  3.1211488843506312
  4.9643999166065660  9.7180658410762373  3.1211478604016860
 18.2205512711093434  9.7180589193210363  3.1211480830448322
  4.9644041531393928  1.8719460808500006  8.9515312678068000
 18.2205555191493360  1.8719390304819747  8.9515314682407077
  4.9644020753423073  5.7950053651006943  8.9515304529976998
 18.2205534391906774  5.7949983234366007  8.9515306646029416
  4.9643999877997986  9.7180646651150369  8.9515296363779235
 18.2205513853193501  9.7180576453081500  8.9515298880138587
  4.9644042342216546  1.8719447200933601 14.7819130103589575
 18.2205556438467511  1.8719377300336313 14.7819132080316820
  4.9644021470262318  5.7950040214704535 14.7819121996179774
 18.2205535175525810  5.7949970031562392 14.7819123899444413
  4.9644000658873102  9.7180633140611139 14.7819113934654762
 18.2205514438467269  9.7180563079825433 14.7819115547238891
  4.9644043373075348  1.8719434973318063 20.6122947266194743
 18.2205557298867475  1.8719366300152407 20.6122948811231126
  4.9644022376983470  5.7950027936767823 20.6122939048486380
 18.2205536259093286  5.7949959429471889 20.6122940508804859
  4.9644001772870308  9.7180620870051335 20.6122931007938952
 18.2205515502820923  9.7180552102011788 20.6122932426558485
  8.2917399762802937  2.0511225876313244  0.2059587071387031
 21.5478913173456981  2.0511153933183164  0.2059588622425501
  8.2917378957475467  5.9741818781103317  0.2059578889857157
 21.5478892463770215  5.9741746912021920  0.2059580562712112
  8.2917357969291992  9.8972411650351653  0.2059570865038038
 21.5478871533788912  9.8972339891341132  0.2059572594016711
  8.2917400434485824  2.0511212808271644  6.0363404483203196
 21.5478914447644208  2.0511141698454800  6.0363406653177849
  8.2917379561270632  5.9741805801732957  6.0363396530541085
 21.5478893410143399  5.9741734629254362  6.0363398895989366
  8.2917358832125672  9.8972398777517547  6.0363388286779447
 21.5478872625621598  9.8972327431820499  6.0363390396493735
  8.2917401259741013  2.0511201032926074 11.8667222248595845
 21.5478915481726148  2.0511131490072136 11.8667224318025948
  8.2917380506463179  5.9741793998621198 11.8667214153203275
 21.5478894730935870  5.9741724535986798 11.8667216142613228
  8.2917359710274940  9.8972387068492935 11.8667206052613032
 21.5478873719632453  9.8972317505298673 11.8667208265846611
  8.2917402308804693  2.0511189776358476 17.6971039710940552
 21.5478916273314347  2.0511120097775790 17.6971041332652668
  8.2917381610208274  5.9741782754273167 17.6971031520418762
 21.5478895645883739  5.9741713041180198 17.6971033052287581
  8.2917360693821998  9.8972375655886839 17.6971023405796259
 21.5478874617932732  9.8972305790296549 17.6971024912259338
 11.5924832356165926  0.0895879903534830  3.1211557628223243
 24.8486346047614397  0.0895812414858908  3.1211560237683078
 11.5924811421265339  4.0126472766463452  3.1211549534078333
 24.8486325219333963  4.0126405531934140  3.1211552188092426
 11.5924790408209937  7.9357065890568892  3.1211541278314519
 24.8486304366846156  7.9356998449120404  3.1211544051531845
 11.5924833272976642  0.0895868249596294  8.9515374781843047
 24.8486347063493227  0.0895799639495396  8.9515377134334706
 11.5924812211964969  4.0126461363123829  8.9515366484094585
 24.8486326156199766  4.0126392402407189  8.9515368928391048
 11.5924791333565640  7.9357054199016295  8.9515358433414658
 24.8486305674017522  7.9356985211447846  8.9515361041407751
 11.5924834334465832  0.0895855595168292 14.7819192238636568
 24.8486347892559643  0.0895785837969328 14.7819194886057872
 11.5924813509404547  4.0126448688292378 14.7819183937189571
 24.8486326983385588  4.0126378933007549 14.7819186638060547
 11.5924792739042264  7.9357041515389373 14.7819175915682592
 24.8486306039364635  7.9356971914999299 14.7819178603092141
 11.5924835419770780  0.0895843190371467 20.6123009782058553
 24.8486348705614866  0.0895775115733368 20.6123012630728475
 11.5924814683717763  4.0126436035880841 20.6123001825402099
 24.8486327943876297  4.0126367959107911 20.6123004539119918
 11.5924793878844117  7.9357029078328098 20.6122993714603453
 24.8486306870901998  7.9356961089689726 20.6122996169240267
  1.6636621070762367  3.8334819958762298  0.2059635614668197
 14.9198136129013452  3.8334748713269655  0.2059637417601932
  1.6636600322992494  7.7565412850146194  0.2059627442633396
 14.9198115089360606  7.7565341739128435  0.2059629497931810
  1.6636579533223301 11.6796005751089513  0.2059619424568434
 14.9198094267579435 11.6795934737524920  0.2059621346758296
  1.6636622402174472  3.8334806471518053  6.0363452555467347
 14.9198136709396021  3.8334737030694388  6.0363454498493754
  1.6636601596070482  7.7565399523070839  6.0363444409847817
 14.9198115940229474  7.7565329921582720  6.0363446204658144
  1.6636580754801202 11.6795992334227012  6.0363436289870815
 14.9198094708175955 11.6795922789317661  6.0363438507282439
  1.6636623306534624  3.8334795365503118 11.8667269558669126
 14.9198137486698368  3.8334726468686555 11.8667271887272641
  1.6636602417769728  7.7565388243571718 11.8667261491617104
 14.9198117015698237  7.7565319114001081 11.8667263722053082
  1.6636581429898281 11.6795981303763021 11.8667253294191131
 14.9198096047530093 11.6795912296235596 11.8667255423936062
  1.6636623924235325  3.8334784566186872 17.6971087374096925
 14.9198138875619719  3.8334714320013119 17.6971089584517394
  1.6636603136884192  7.7565377433843095 17.6971079261162778
 14.9198118192829376  7.7565307292222760 17.6971081400137216
  1.6636582214251352 11.6795970565130389 17.6971071114341427
 14.9198097367018434 11.6795900221833318 17.6971073191411357
  6.2703177504507908  1.8133036018732782  1.9105278849096194
 19.5264691576947556  1.8132966200342173  1.9105281371818816
  6.2703156783142946  5.7363628788340346  1.9105270694629073
 19.5264670710382191  5.7363559419633345  1.9105273159691134
  6.2703135934012773  9.6594221861770340  1.9105262428981757
 19.5264649989213339  9.6594152320903532  1.9105264999887301
  6.2703178334183347  1.8133024145253245  7.7409095994779769
 19.5264691704965578  1.8132954212536643  7.7409098203624609
  6.2703157507422445  5.7363617076239803  7.7409087797751965
 19.5264670931992121  5.7363547149173897  7.7409089962469517
  6.2703136638023835  9.6594210016080169  7.7409079702174788
 19.5264650690820147  9.6594140179170402  7.7409081859248419
  6.2703178510707014  1.8133011656825355 13.5712912924636644
 19.5264693018039885  1.8132941671200917 13.5712915366391194
  6.2703157765798698  5.7363604556929779 13.5712904838985455
 19.5264672112411510  5.7363534317001070 13.5712907164571419
  6.2703136944922599  9.6594197573180232 13.5712896718978744
 19.5264650930330461  9.6594127587569023 13.5712899097771977
  6.2703179772919491  1.8132999415746553 19.4016730368851817
 19.5264694239454712  1.8132929968671263 19.4016733354830713
  6.2703158918938398  5.7363592319534256 19.4016722300209956
 19.5264673299585318  5.7363523075798106 19.4016725424709691
  6.2703138140201728  9.6594185356227324 19.4016714136059818
 19.5264652473618661  9.6594115824247826 19.4016717233654639
  6.9858267045172306  2.1097639736505940  4.8257180793598087
 20.2419780364775974  2.1097569529052769  4.8257182919114685
  6.9858246161325352  6.0328232697388220  4.8257172536458581
 20.2419759656863931  6.0328162283645357  4.8257174574192359
  6.9858225559152594  9.9558825642910502  4.8257164408243014
 20.2419738622472529  9.9558755412984716  4.8257166756323562
  6.9858268383778377  2.1097627589563008 10.6560997794952943
 20.2419782170029379  2.1097558154040881 10.6560999627679251
  6.9858247720272670  6.0328220534762327 10.6560989556424150
 20.2419761356427550  6.0328151200967408 10.6560991460037329
  6.9858226944281174  9.9558813504556003 10.6560981537240629
 20.2419740793928575  9.9558743923861055 10.6560983330829924
  6.9858269812231635  2.1097615875136482 16.4864814724639679
 20.2419782567516151  2.1097546697797998 16.4864817249509024
  6.9858249024811361  6.0328208869382589 16.4864806706166469
 20.2419761548622112  6.0328139839324724 16.4864809418495568
  6.9858228048437256  9.9558801821004614 16.4864798550115736
 20.2419740947452809  9.9558732514796446 16.4864801199324482
  6.9858270374132401  2.1097604377140340 22.3168632549902668
 20.2419783055817319  2.1097533844763157 22.3168635747319399
  6.9858249358968507  6.0328197370545968 22.3168624432361220
 20.2419762180414509  6.0328126892517178 22.3168627649068867
  6.9858228556727733  9.9558790233865047 22.3168616205957449
 20.2419741243627520  9.9558719757018626 22.3168619239894888
 12.8983968111509792  0.1482381410129125  1.9105348873140229
 26.1545481155470796  0.1482312518923613  1.9105350396365419
 12.8983947268508459  4.0712974320779978  1.9105340682298113
 26.1545460160304017  4.0712905570730884  1.9105342202439646
 12.8983926447701673  7.9943567478750888  1.9105332643873036
 26.1545439343529615  7.9943498481112352  1.9105334060403480
 12.8983969021468710  0.1482369585887964  7.7409166416655069
 26.1545482959722122  0.1482300507530447  7.7409168265406443
 12.8983948104169670  4.0712962664217338  7.7409158518889569
 26.1545462188857556  4.0712893401820391  7.7409160370594723
 12.8983927386406982  7.9943555598163867  7.7409150410671339
 26.1545441454929239  7.9943486230264229  7.7409152267336516
 12.8983970446073588  0.1482357398030801 13.5712984333567892
 26.1545484159913713  0.1482287716440760 13.5712986338759070
 12.8983949532527813  4.0712950397606589 13.5712976240785022
 26.1545463321341600  4.0712880718708035 13.5712978045664130
 12.8983928822652931  7.9943543299899282 13.5712968074579123
 26.1545442529321832  7.9943473700131875 13.5712969960572707
 12.8983971682019174  0.1482345292837284 19.4016801675683652
 26.1545484122739964  0.1482276024258163 19.4016803129151576
 12.8983950879512914  4.0712938140200743 19.4016793396858880
 26.1545463426124982  4.0712868941644311 19.4016794881778587
 12.8983930059865806  7.9943531190877080 19.4016785269283183
 26.1545442219959945  7.9943461967064238 19.4016786708225624
  0.3577477341059309  3.7748295346732417  4.8257253212450770
 13.6138991211472895  3.7748225666927797  4.8257256259655605
  0.3577456539411553  7.6978888351112031  4.8257245267738851
 13.6138970306447433  7.6978818490568086  4.8257248194939297
  0.3577435841662893 11.6209481337615266  4.8257237102539872
 13.6138949561846463 11.6209411600738495  4.8257239505512102
  0.3577477433469666  3.7748283521697306 10.6561071820564202
 13.6138991720657376  3.7748214261871720 10.6561073971239377
  0.3577456651921658  7.6978876527772178 10.6561063580173769
 13.6138970833127217  7.6978807021669944 10.6561066125642672
  0.3577435932141694 11.6209469553920126 10.6561055460032925
 13.6138950311703510 11.6209400291229770 10.6561057987596275
  0.3577478319077653  3.7748272261661939 16.4864889258353813
 13.6138993359171199  3.7748202404919913 16.4864891212087592
  0.3577457441547570  7.6978865201976170 16.4864881130436167
 13.6138972782673378  7.6978795458294504 16.4864882985183101
  0.3577436508264158 11.6209458159820382 16.4864873089821522
 13.6138951570397246 11.6209388123613984 16.4864875093032950
  0.3577480173988669  3.7748260398475595 22.3168705680429618
 13.6138994861184379  3.7748189883015808 22.3168708107258382
  0.3577459198824410  7.6978853190104344 22.3168697657345412
 13.6138973798935492  7.6978782787503874 22.3168699911610560
  0.3577438369421312 11.6209446143010684 22.3168689460458971
 13.6138953038296009 11.6209375765857974 22.3168691766747003
  5.8959283101588777  3.3408341681881573  2.6950120992026312
 19.1520797042568489  3.3408272279784725  2.6950123889578967
  5.8959262537054773  7.2638934590396005  2.6950113391300925
 19.1520776280796881  7.2638865150700465  2.6950115536549402
  5.8959241678209002 11.1869527598935896  2.6950105046245620
 19.1520755400376359 11.1869458365682899  2.6950107177914782
  5.8959284926598299  3.3408329645839072  8.5253939886762851