 C  H  N 
 1.0000000000000000
     9.6748309341621148    0.0000000000000000   -0.0000000000000000
    -4.8374154670810574    8.3786493663039234    0.0000000000000000
     0.0000000000000013    0.0000000000000022   14.1446921112234012
 C   H   N  
  36  36  36
Selective dynamics
Cartesian
 -0.6547168289356849  1.1340032019140389  1.7680867839194845   T   T   T
 -0.6547168289356847  1.1340032019140398  8.8404328395311857   T   T   T
  5.4921332949516879  7.2446452134379111  5.3042598117253341   T   T   T
  5.4921332949516879  7.2446452134379120 12.3766058673370356   T   T   T
  4.1826986381453715  7.2446452134379102  1.7680867839194832   T   T   T
  4.1826986381453715  7.2446452134379111  8.8404328395311840   T   T   T
  0.6547178278706289  1.1340032019140396  5.3042598117253350   T   T   T
  0.6547178278706292  1.1340032019140405 12.3766058673370374   T   T   T
  1.3094351562737856 -0.0000004754759865  1.7680867839194845   T   T   T
  1.3094351562737858 -0.0000004754759856  8.8404328395311857   T   T   T
  3.5279813097422150  8.3786488908279377  5.3042598117253341   T   T   T
  3.5279813097422150  8.3786488908279377 12.3766058673370356   T   T   T
  4.1826986381453715  3.9268863240153475  4.1255354691233839   T   T   T
  4.1826986381453715  3.9268863240153475 11.1978815247350862   T   T   T
  5.4921332949516879  1.6588789692352957  0.5893624413175340   T   T   T
  5.4921332949516879  1.6588789692352965  7.6617084969292355   T   T   T
  4.1826986381453715  1.6588789692352957  4.1255354691233848   T   T   T
  4.1826986381453715  1.6588789692352965 11.1978815247350845   T   T   T
  5.4921332949516870  3.9268863240153471  0.5893624413175331   T   T   T
  5.4921332949516870  3.9268863240153480  7.6617084969292346   T   T   T
  6.1468506233548430  2.7928826466253214  4.1255354691233839   T   T   T
  6.1468506233548430  2.7928826466253218 11.1978815247350862   T   T   T
  3.5279813097422150  2.7928826466253209  0.5893624413175340   T   T   T
  3.5279813097422150  2.7928826466253218  7.6617084969292355   T   T   T
 -0.6547168289356849  6.7197694461166551  6.4829841543272844   T   T   T
 -0.6547168289356847  6.7197694461166559 13.5553302099389850   T   T   T
  0.6547178278706298  4.4517620913366036  2.9468111265214345   T   T   T
  0.6547178278706298  4.4517620913366036 10.0191571821331351   T   T   T
 -0.6547168289356853  4.4517620913366036  6.4829841543272853   T   T   T
 -0.6547168289356853  4.4517620913366036 13.5553302099389867   T   T   T
  0.6547178278706287  6.7197694461166551  2.9468111265214336   T   T   T
  0.6547178278706289  6.7197694461166559 10.0191571821331351   T   T   T
  1.3094351562737856  5.5857657687266293  6.4829841543272844   T   T   T
  1.3094351562737858  5.5857657687266302 13.5553302099389850   T   T   T
 -1.3094341573388424  5.5857657687266293  2.9468111265214345   T   T   T
 -1.3094341573388424  5.5857657687266302 10.0191571821331351   T   T   T
  8.4776999422266748  2.0734920909745611  1.7680867839194836   T   T   T
  8.4776999422266748  2.0734920909745620  8.8404328395311857   T   T   T
 -3.6402834762106733  6.3051563243773900  5.3042598117253350   T   T   T
 -3.6402834762106733  6.3051563243773909 12.3766058673370374   T   T   T
  3.6402844751456174  6.3051563243773892  1.7680867839194834   T   T   T
  3.6402844751456174  6.3051563243773900  8.8404328395311857   T   T   T
  1.1971319908703837  2.0734920909745611  5.3042598117253350   T   T   T
  1.1971319908703839  2.0734920909745620 12.3766058673370374   T   T   T
 -2.4431519848077627  8.3786488908279377  1.7680867839194836   T   T   T
 -2.4431519848077627  8.3786488908279377  8.8404328395311857   T   T   T
  7.2805684508237638 -0.0000004754759860  5.3042598117253350   T   T   T
  7.2805684508237638 -0.0000004754759851 12.3766058673370374   T   T   T
  3.6402844751456174  4.8663752130758686  4.1255354691233839   T   T   T
  3.6402844751456174  4.8663752130758695 11.1978815247350862   T   T   T
  6.0345474579514411  0.7193900801747740  0.5893624413175340   T   T   T
  6.0345474579514411  0.7193900801747749  7.6617084969292355   T   T   T
  3.6402844751456174  0.7193900801747740  4.1255354691233848   T   T   T
  3.6402844751456178  0.7193900801747749 11.1978815247350845   T   T   T
  6.0345474579514411  4.8663752130758686  0.5893624413175331   T   T   T
  6.0345474579514411  4.8663752130758686  7.6617084969292346   T   T   T
  7.2316789493543530  2.7928826466253214  4.1255354691233839   T   T   T
  7.2316789493543530  2.7928826466253218 11.1978815247350862   T   T   T
  2.4431529837427073  2.7928826466253209  0.5893624413175340   T   T   T
  2.4431529837427073  2.7928826466253218  7.6617084969292355   T   T   T
 -1.1971309919354396  7.6592583351771770  6.4829841543272844   T   T   T
 -1.1971309919354394  7.6592583351771779 13.5553302099389850   T   T   T
  1.1971319908703837  3.5122732022760821  2.9468111265214345   T   T   T
  1.1971319908703837  3.5122732022760830 10.0191571821331351   T   T   T
 -1.1971309919354396  3.5122732022760821  6.4829841543272853   T   T   T
 -1.1971309919354396  3.5122732022760825 13.5553302099389867   T   T   T
  1.1971319908703835  7.6592583351771761  2.9468111265214336   T   T   T
  1.1971319908703837  7.6592583351771770 10.0191571821331351   T   T   T
  2.3942634822732947  5.5857657687266293  6.4829841543272844   T   T   T
  2.3942634822732947  5.5857657687266302 13.5553302099389850   T   T   T
 -2.3942624833383501  5.5857657687266293  2.9468111265214345   T   T   T
 -2.3942624833383501  5.5857657687266302 10.0191571821331351   T   T   T
  3.4584415311733205  8.3786488908279377  1.7680867839194832   T   T   T
  3.4584415311733205  8.3786488908279377  8.8404328395311840   T   T   T
  1.3789749348426807 -0.0000004754759860  5.3042598117253350   T   T   T
  1.3789749348426810 -0.0000004754759851 12.3766058673370374   T   T   T
 -4.1479277499259819  7.1844219986237032  1.7680867839194840   T   T   T
 -4.1479277499259819  7.1844219986237041  8.8404328395311857   T   T   T
 -0.6894867182201322  1.1942264167282477  5.3042598117253350   T   T   T
 -0.6894867182201320  1.1942264167282486 12.3766058673370374   T   T   T
  0.6894877171550762  1.1942264167282470  1.7680867839194845   T   T   T
  0.6894877171550764  1.1942264167282479  8.8404328395311857   T   T   T
  4.1479287488609264  7.1844219986237041  5.3042598117253341   T   T   T
  4.1479287488609264  7.1844219986237050 12.3766058673370356   T   T   T
  3.4584415311733205  2.7928826466253214  4.1255354691233848   T   T   T
  3.4584415311733205  2.7928826466253218 11.1978815247350862   T   T   T
  6.2163904019237393  2.7928826466253209  0.5893624413175331   T   T   T
  6.2163904019237393  2.7928826466253218  7.6617084969292346   T   T   T
  5.5269031842361329  1.5986557544210884  4.1255354691233848   T   T   T
  5.5269031842361329  1.5986557544210893 11.1978815247350862   T   T   T
  4.1479287488609256  3.9871095388295545  0.5893624413175331   T   T   T
  4.1479287488609256  3.9871095388295554  7.6617084969292346   T   T   T
  5.5269031842361329  3.9871095388295550  4.1255354691233839   T   T   T
  5.5269031842361329  3.9871095388295550 11.1978815247350862   T   T   T
  4.1479287488609264  1.5986557544210884  0.5893624413175340   T   T   T
  4.1479287488609264  1.5986557544210893  7.6617084969292355   T   T   T
 -1.3789739359077366  5.5857657687266293  6.4829841543272853   T   T   T
 -1.3789739359077349  5.5857657687266302 13.5553302099389885   T   T   T
  1.3789749348426805  5.5857657687266293  2.9468111265214336   T   T   T
  1.3789749348426807  5.5857657687266302 10.0191571821331351   T   T   T
  0.6894877171550761  4.3915388765223966  6.4829841543272853   T   T   T
  0.6894877171550761  4.3915388765223966 13.5553302099389867   T   T   T
 -0.6894867182201324  6.7799926609308629  2.9468111265214336   T   T   T
 -0.6894867182201322  6.7799926609308638 10.0191571821331351   T   T   T
  0.6894877171550762  6.7799926609308629  6.4829841543272844   T   T   T
  0.6894877171550764  6.7799926609308638 13.5553302099389850   T   T   T
 -0.6894867182201315  4.3915388765223966  2.9468111265214345   T   T   T
 -0.6894867182201315  4.3915388765223966 10.0191571821331351   T   T   T
