C H O
        1.0000000000
  18.624324934513389   0.006025970279418   0.000000000035088
  -0.010302057575050  18.575888980485338   0.000000000066679
   0.000000000031231   0.000000000058019  16.261694120893019
  216  108  216
 Direct
   0.061706053327783   0.025741472678297   0.083333333281639
   0.395039386661117   0.025741472678297   0.083333333281639
   0.728372719994450   0.025741472678297   0.083333333281639
   0.061706053327783   0.359074806011630   0.083333333281639
   0.395039386661117   0.359074806011630   0.083333333281639
   0.728372719994450   0.359074806011630   0.083333333281639
   0.061706053327783   0.692408139344964   0.083333333281639
   0.395039386661117   0.692408139344964   0.083333333281639
   0.728372719994450   0.692408139344964   0.083333333281639
   0.061706053327783   0.025741472678297   0.416666666614972
   0.395039386661117   0.025741472678297   0.416666666614972
   0.728372719994450   0.025741472678297   0.416666666614972
   0.061706053327783   0.359074806011630   0.416666666614972
   0.395039386661117   0.359074806011630   0.416666666614972
   0.728372719994450   0.359074806011630   0.416666666614972
   0.061706053327783   0.692408139344964   0.416666666614972
   0.395039386661117   0.692408139344964   0.416666666614972
   0.728372719994450   0.692408139344964   0.416666666614972
   0.061706053327783   0.025741472678297   0.749999999948305
   0.395039386661117   0.025741472678297   0.749999999948305
   0.728372719994450   0.025741472678297   0.749999999948305
   0.061706053327783   0.359074806011630   0.749999999948305
   0.395039386661117   0.359074806011630   0.749999999948305
   0.728372719994450   0.359074806011630   0.749999999948305
   0.061706053327783   0.692408139344964   0.749999999948305
   0.395039386661117   0.692408139344964   0.749999999948305
   0.728372719994450   0.692408139344964   0.749999999948305
   0.271627280053672   0.307591861134111   0.250000000008186
   0.604960613387005   0.307591861134111   0.250000000008186
   0.938293946720339   0.307591861134111   0.250000000008186
   0.271627280053672   0.640925194467445   0.250000000008186
   0.604960613387005   0.640925194467445   0.250000000008186
   0.938293946720339   0.640925194467445   0.250000000008186
   0.271627280053672   0.974258527800778   0.250000000008186
   0.604960613387005   0.974258527800778   0.250000000008186
   0.938293946720339   0.974258527800778   0.250000000008186
   0.271627280053672   0.307591861134111   0.583333333341520
   0.604960613387005   0.307591861134111   0.583333333341520
   0.938293946720339   0.307591861134111   0.583333333341520
   0.271627280053672   0.640925194467445   0.583333333341520
   0.604960613387005   0.640925194467445   0.583333333341520
   0.938293946720339   0.640925194467445   0.583333333341520
   0.271627280053672   0.974258527800778   0.583333333341520
   0.604960613387005   0.974258527800778   0.583333333341520
   0.938293946720339   0.974258527800778   0.583333333341520
   0.271627280053672   0.307591861134111   0.916666666674853
   0.604960613387005   0.307591861134111   0.916666666674853
   0.938293946720339   0.307591861134111   0.916666666674853
   0.271627280053672   0.640925194467445   0.916666666674853
   0.604960613387005   0.640925194467445   0.916666666674853
   0.938293946720339   0.640925194467445   0.916666666674853
   0.271627280053672   0.974258527800778   0.916666666674853
   0.604960613387005   0.974258527800778   0.916666666674853
   0.938293946720339   0.974258527800778   0.916666666674853
   0.032876253562659   0.099571005006411   0.083333333366317
   0.366209586895992   0.099571005006411   0.083333333366317
   0.699542920229326   0.099571005006411   0.083333333366317
   0.032876253562659   0.432904338339745   0.083333333366317
   0.366209586895992   0.432904338339745   0.083333333366317
   0.699542920229326   0.432904338339745   0.083333333366317
   0.032876253562659   0.766237671673078   0.083333333366317
   0.366209586895992   0.766237671673078   0.083333333366317
   0.699542920229326   0.766237671673078   0.083333333366317
   0.032876253562659   0.099571005006411   0.416666666699650
   0.366209586895992   0.099571005006411   0.416666666699650
   0.699542920229326   0.099571005006411   0.416666666699650
   0.032876253562659   0.432904338339745   0.416666666699650
   0.366209586895992   0.432904338339745   0.416666666699650
   0.699542920229326   0.432904338339745   0.416666666699650
   0.032876253562659   0.766237671673078   0.416666666699650
   0.366209586895992   0.766237671673078   0.416666666699650
   0.699542920229326   0.766237671673078   0.416666666699650
   0.032876253562659   0.099571005006411   0.750000000032983
   0.366209586895992   0.099571005006411   0.750000000032983
   0.699542920229326   0.099571005006411   0.750000000032983
   0.032876253562659   0.432904338339745   0.750000000032983
   0.366209586895992   0.432904338339745   0.750000000032983
   0.699542920229326   0.432904338339745   0.750000000032983
   0.032876253562659   0.766237671673078   0.750000000032983
   0.366209586895992   0.766237671673078   0.750000000032983
   0.699542920229326   0.766237671673078   0.750000000032983
   0.300457079479644   0.233762328571138   0.249999999949578
   0.633790412812977   0.233762328571138   0.249999999949578
   0.967123746146310   0.233762328571138   0.249999999949578
   0.300457079479644   0.567095661904471   0.249999999949578
   0.633790412812977   0.567095661904471   0.249999999949578
   0.967123746146310   0.567095661904471   0.249999999949578
   0.300457079479644   0.900428995237805   0.249999999949578
   0.633790412812977   0.900428995237805   0.249999999949578
   0.967123746146310   0.900428995237805   0.249999999949578
   0.300457079479644   0.233762328571138   0.583333333282911
   0.633790412812977   0.233762328571138   0.583333333282911
   0.967123746146310   0.233762328571138   0.583333333282911
   0.300457079479644   0.567095661904471   0.583333333282911
   0.633790412812977   0.567095661904471   0.583333333282911
   0.967123746146310   0.567095661904471   0.583333333282911
   0.300457079479644   0.900428995237805   0.583333333282911
   0.633790412812977   0.900428995237805   0.583333333282911
   0.967123746146310   0.900428995237805   0.583333333282911
   0.300457079479644   0.233762328571138   0.916666666616245
   0.633790412812977   0.233762328571138   0.916666666616245
   0.967123746146310   0.233762328571138   0.916666666616245
   0.300457079479644   0.567095661904471   0.916666666616245
   0.633790412812977   0.567095661904471   0.916666666616245
   0.967123746146310   0.567095661904471   0.916666666616245
   0.300457079479644   0.900428995237805   0.916666666616245
   0.633790412812977   0.900428995237805   0.916666666616245
   0.967123746146310   0.900428995237805   0.916666666616245
   0.102758133926312   0.129598162230352   0.083333333302027
   0.436091467259645   0.129598162230352   0.083333333302027
   0.769424800592979   0.129598162230352   0.083333333302027
   0.102758133926312   0.462931495563685   0.083333333302027
   0.436091467259645   0.462931495563685   0.083333333302027
   0.769424800592979   0.462931495563685   0.083333333302027
   0.102758133926312   0.796264828897018   0.083333333302027
   0.436091467259645   0.796264828897018   0.083333333302027
   0.769424800592979   0.796264828897018   0.083333333302027
   0.102758133926312   0.129598162230352   0.416666666635360
   0.436091467259645   0.129598162230352   0.416666666635360
   0.769424800592979   0.129598162230352   0.416666666635360
   0.102758133926312   0.462931495563685   0.416666666635360
   0.436091467259645   0.462931495563685   0.416666666635360
   0.769424800592979   0.462931495563685   0.416666666635360
   0.102758133926312   0.796264828897018   0.416666666635360
   0.436091467259645   0.796264828897018   0.416666666635360
   0.769424800592979   0.796264828897018   0.416666666635360
   0.102758133926312   0.129598162230352   0.749999999968694
   0.436091467259645   0.129598162230352   0.749999999968694
   0.769424800592979   0.129598162230352   0.749999999968694
   0.102758133926312   0.462931495563685   0.749999999968694
   0.436091467259645   0.462931495563685   0.749999999968694
   0.769424800592979   0.462931495563685   0.749999999968694
   0.102758133926312   0.796264828897018   0.749999999968694
   0.436091467259645   0.796264828897018   0.749999999968694
   0.769424800592979   0.796264828897018   0.749999999968694
   0.230575199208696   0.203735171713713   0.250000000103745
   0.563908532542029   0.203735171713713   0.250000000103745
   0.897241865875363   0.203735171713713   0.250000000103745
   0.230575199208696   0.537068505047046   0.250000000103745
   0.563908532542029   0.537068505047046   0.250000000103745
   0.897241865875363   0.537068505047046   0.250000000103745
   0.230575199208696   0.870401838380380   0.250000000103745
   0.563908532542029   0.870401838380380   0.250000000103745
   0.897241865875363   0.870401838380380   0.250000000103745
   0.230575199208696   0.203735171713713   0.583333333437078
   0.563908532542029   0.203735171713713   0.583333333437078
   0.897241865875363   0.203735171713713   0.583333333437078
   0.230575199208696   0.537068505047046   0.583333333437078
   0.563908532542029   0.537068505047046   0.583333333437078
   0.897241865875363   0.537068505047046   0.583333333437078
   0.230575199208696   0.870401838380380   0.583333333437078
   0.563908532542029   0.870401838380380   0.583333333437078
   0.897241865875363   0.870401838380380   0.583333333437078
   0.230575199208696   0.203735171713713   0.916666666770412
   0.563908532542029   0.203735171713713   0.916666666770412
   0.897241865875363   0.203735171713713   0.916666666770412
   0.230575199208696   0.537068505047046   0.916666666770412
   0.563908532542029   0.537068505047046   0.916666666770412
   0.897241865875363   0.537068505047046   0.916666666770412
   0.230575199208696   0.870401838380380   0.916666666770412
   0.563908532542029   0.870401838380380   0.916666666770412
   0.897241865875363   0.870401838380380   0.916666666770412
   0.136359735563972   0.058214624738134   0.083333333383352
   0.469693068897305   0.058214624738134   0.083333333383352
   0.803026402230639   0.058214624738134   0.083333333383352
   0.136359735563972   0.391547958071467   0.083333333383352
   0.469693068897305   0.391547958071467   0.083333333383352
   0.803026402230639   0.391547958071467   0.083333333383352
   0.136359735563972   0.724881291404800   0.083333333383352
   0.469693068897305   0.724881291404800   0.083333333383352
   0.803026402230639   0.724881291404800   0.083333333383352
   0.136359735563972   0.058214624738134   0.416666666716685
   0.469693068897305   0.058214624738134   0.416666666716685
   0.803026402230639   0.058214624738134   0.416666666716685
   0.136359735563972   0.391547958071467   0.416666666716685
   0.469693068897305   0.391547958071467   0.416666666716685
   0.803026402230639   0.391547958071467   0.416666666716685
   0.136359735563972   0.724881291404800   0.416666666716685
   0.469693068897305   0.724881291404800   0.416666666716685
   0.803026402230639   0.724881291404800   0.416666666716685
   0.136359735563972   0.058214624738134   0.750000000050019
   0.469693068897305   0.058214624738134   0.750000000050019
   0.803026402230639   0.058214624738134   0.750000000050019
   0.136359735563972   0.391547958071467   0.750000000050019
   0.469693068897305   0.391547958071467   0.750000000050019
   0.803026402230639   0.391547958071467   0.750000000050019
   0.136359735563972   0.724881291404800   0.750000000050019
   0.469693068897305   0.724881291404800   0.750000000050019
   0.803026402230639   0.724881291404800   0.750000000050019
   0.196973597404222   0.275118709125656   0.249999999937473
   0.530306930737556   0.275118709125656   0.249999999937473
   0.863640264070889   0.275118709125656   0.249999999937473
   0.196973597404222   0.608452042458989   0.249999999937473
   0.530306930737556   0.608452042458989   0.249999999937473
   0.863640264070889   0.608452042458989   0.249999999937473
   0.196973597404222   0.941785375792322   0.249999999937473
   0.530306930737556   0.941785375792322   0.249999999937473
   0.863640264070889   0.941785375792322   0.249999999937473
   0.196973597404222   0.275118709125656   0.583333333270806
   0.530306930737556   0.275118709125656   0.583333333270806
   0.863640264070889   0.275118709125656   0.583333333270806
   0.196973597404222   0.608452042458989   0.583333333270806
   0.530306930737556   0.608452042458989   0.583333333270806
   0.863640264070889   0.608452042458989   0.583333333270806
   0.196973597404222   0.941785375792322   0.583333333270806
   0.530306930737556   0.941785375792322   0.583333333270806
   0.863640264070889   0.941785375792322   0.583333333270806
   0.196973597404222   0.275118709125656   0.916666666604139
   0.530306930737556   0.275118709125656   0.916666666604139
   0.863640264070889   0.275118709125656   0.916666666604139
   0.196973597404222   0.608452042458989   0.916666666604139
   0.530306930737556   0.608452042458989   0.916666666604139
   0.863640264070889   0.608452042458989   0.916666666604139
   0.196973597404222   0.941785375792322   0.916666666604139
   0.530306930737556   0.941785375792322   0.916666666604139
   0.863640264070889   0.941785375792322   0.916666666604139
   0.093195243398222   0.233945476296182   0.083333333333429
   0.426528576731555   0.233945476296182   0.083333333333429
   0.759861910064888   0.233945476296182   0.083333333333429
   0.093195243398222   0.567278809629516   0.083333333333429
   0.426528576731555   0.567278809629516   0.083333333333429
   0.759861910064888   0.567278809629516   0.083333333333429
   0.093195243398222   0.900612142962849   0.083333333333429
   0.426528576731555   0.900612142962849   0.083333333333429
   0.759861910064888   0.900612142962849   0.083333333333429
   0.093195243398222   0.233945476296182   0.416666666666762
   0.426528576731555   0.233945476296182   0.416666666666762
   0.759861910064888   0.233945476296182   0.416666666666762
   0.093195243398222   0.567278809629516   0.416666666666762
   0.426528576731555   0.567278809629516   0.416666666666762
   0.759861910064888   0.567278809629516   0.416666666666762
   0.093195243398222   0.900612142962849   0.416666666666762
   0.426528576731555   0.900612142962849   0.416666666666762
   0.759861910064888   0.900612142962849   0.416666666666762
   0.093195243398222   0.233945476296182   0.750000000000095
   0.426528576731555   0.233945476296182   0.750000000000095
   0.759861910064888   0.233945476296182   0.750000000000095
   0.093195243398222   0.567278809629516   0.750000000000095
   0.426528576731555   0.567278809629516   0.750000000000095
   0.759861910064888   0.567278809629516   0.750000000000095
   0.093195243398222   0.900612142962849   0.750000000000095
   0.426528576731555   0.900612142962849   0.750000000000095
   0.759861910064888   0.900612142962849   0.750000000000095
   0.240138091436990   0.099387857885197   0.250000000001121
   0.573471424770323   0.099387857885197   0.250000000001121
   0.906804758103656   0.099387857885197   0.250000000001121
   0.240138091436990   0.432721191218530   0.250000000001121
   0.573471424770323   0.432721191218530   0.250000000001121
   0.906804758103656   0.432721191218530   0.250000000001121
   0.240138091436990   0.766054524551864   0.250000000001121
   0.573471424770323   0.766054524551864   0.250000000001121
   0.906804758103656   0.766054524551864   0.250000000001121
   0.240138091436990   0.099387857885197   0.583333333334454
   0.573471424770323   0.099387857885197   0.583333333334454
   0.906804758103656   0.099387857885197   0.583333333334454
   0.240138091436990   0.432721191218530   0.583333333334454
   0.573471424770323   0.432721191218530   0.583333333334454
   0.906804758103656   0.432721191218530   0.583333333334454
   0.240138091436990   0.766054524551864   0.583333333334454
   0.573471424770323   0.766054524551864   0.583333333334454
   0.906804758103656   0.766054524551864   0.583333333334454
   0.240138091436990   0.099387857885197   0.916666666667788
   0.573471424770323   0.099387857885197   0.916666666667788
   0.906804758103656   0.099387857885197   0.916666666667788
   0.240138091436990   0.432721191218530   0.916666666667788
   0.573471424770323   0.432721191218530   0.916666666667788
   0.906804758103656   0.432721191218530   0.916666666667788
   0.240138091436990   0.766054524551864   0.916666666667788
   0.573471424770323   0.766054524551864   0.916666666667788
   0.906804758103656   0.766054524551864   0.916666666667788
   0.262611560686595   0.091170861565290   0.083333333333584
   0.595944894019928   0.091170861565290   0.083333333333584
   0.929278227353261   0.091170861565290   0.083333333333584
   0.262611560686595   0.424504194898623   0.083333333333584
   0.595944894019928   0.424504194898623   0.083333333333584
   0.929278227353261   0.424504194898623   0.083333333333584
   0.262611560686595   0.757837528231957   0.083333333333584
   0.595944894019928   0.757837528231957   0.083333333333584
   0.929278227353261   0.757837528231957   0.083333333333584
   0.262611560686595   0.091170861565290   0.416666666666918
   0.595944894019928   0.091170861565290   0.416666666666918
   0.929278227353261   0.091170861565290   0.416666666666918
   0.262611560686595   0.424504194898623   0.416666666666918
   0.595944894019928   0.424504194898623   0.416666666666918
   0.929278227353261   0.424504194898623   0.416666666666918
   0.262611560686595   0.757837528231957   0.416666666666918
   0.595944894019928   0.757837528231957   0.416666666666918
   0.929278227353261   0.757837528231957   0.416666666666918
   0.262611560686595   0.091170861565290   0.750000000000251
   0.595944894019928   0.091170861565290   0.750000000000251
   0.929278227353261   0.091170861565290   0.750000000000251
   0.262611560686595   0.424504194898623   0.750000000000251
   0.595944894019928   0.424504194898623   0.750000000000251
   0.929278227353261   0.424504194898623   0.750000000000251
   0.262611560686595   0.757837528231957   0.750000000000251
   0.595944894019928   0.757837528231957   0.750000000000251
   0.929278227353261   0.757837528231957   0.750000000000251
   0.070721772467697   0.242162469751527   0.250000000000563
   0.404055105801031   0.242162469751527   0.250000000000563
   0.737388439134364   0.242162469751527   0.250000000000563
   0.070721772467697   0.575495803084860   0.250000000000563
   0.404055105801031   0.575495803084860   0.250000000000563
   0.737388439134364   0.575495803084860   0.250000000000563
   0.070721772467697   0.908829136418194   0.250000000000563
   0.404055105801031   0.908829136418194   0.250000000000563
   0.737388439134364   0.908829136418194   0.250000000000563
   0.070721772467697   0.242162469751527   0.583333333333896
   0.404055105801031   0.242162469751527   0.583333333333896
   0.737388439134364   0.242162469751527   0.583333333333896
   0.070721772467697   0.575495803084860   0.583333333333896
   0.404055105801031   0.575495803084860   0.583333333333896
   0.737388439134364   0.575495803084860   0.583333333333896
   0.070721772467697   0.908829136418194   0.583333333333896
   0.404055105801031   0.908829136418194   0.583333333333896
   0.737388439134364   0.908829136418194   0.583333333333896
   0.070721772467697   0.242162469751527   0.916666666667230
   0.404055105801031   0.242162469751527   0.916666666667230
   0.737388439134364   0.242162469751527   0.916666666667230
   0.070721772467697   0.575495803084860   0.916666666667230
   0.404055105801031   0.575495803084860   0.916666666667230
   0.737388439134364   0.575495803084860   0.916666666667230
   0.070721772467697   0.908829136418194   0.916666666667230
   0.404055105801031   0.908829136418194   0.916666666667230
   0.737388439134364   0.908829136418194   0.916666666667230
   0.035657248794466   0.297686864857905   0.083333333347933
   0.368990582127800   0.297686864857905   0.083333333347933
   0.702323915461133   0.297686864857905   0.083333333347933
   0.035657248794466   0.631020198191239   0.083333333347933
   0.368990582127800   0.631020198191239   0.083333333347933
   0.702323915461133   0.631020198191239   0.083333333347933
   0.035657248794466   0.964353531524572   0.083333333347933
   0.368990582127800   0.964353531524572   0.083333333347933
   0.702323915461133   0.964353531524572   0.083333333347933
   0.035657248794466   0.297686864857905   0.416666666681266
   0.368990582127800   0.297686864857905   0.416666666681266
   0.702323915461133   0.297686864857905   0.416666666681266
   0.035657248794466   0.631020198191239   0.416666666681266
   0.368990582127800   0.631020198191239   0.416666666681266
   0.702323915461133   0.631020198191239   0.416666666681266
   0.035657248794466   0.964353531524572   0.416666666681266
   0.368990582127800   0.964353531524572   0.416666666681266
   0.702323915461133   0.964353531524572   0.416666666681266
   0.035657248794466   0.297686864857905   0.750000000014599
   0.368990582127800   0.297686864857905   0.750000000014599
   0.702323915461133   0.297686864857905   0.750000000014599
   0.035657248794466   0.631020198191239   0.750000000014599
   0.368990582127800   0.631020198191239   0.750000000014599
   0.702323915461133   0.631020198191239   0.750000000014599
   0.035657248794466   0.964353531524572   0.750000000014599
   0.368990582127800   0.964353531524572   0.750000000014599
   0.702323915461133   0.964353531524572   0.750000000014599
   0.297676084854342   0.035646468864024   0.250000000008071
   0.631009418187675   0.035646468864024   0.250000000008071
   0.964342751521009   0.035646468864024   0.250000000008071
   0.297676084854342   0.368979802197357   0.250000000008071
   0.631009418187675   0.368979802197357   0.250000000008071
   0.964342751521009   0.368979802197357   0.250000000008071
   0.297676084854342   0.702313135530690   0.250000000008071
   0.631009418187675   0.702313135530690   0.250000000008071
   0.964342751521009   0.702313135530690   0.250000000008071
   0.297676084854342   0.035646468864024   0.583333333341405
   0.631009418187675   0.035646468864024   0.583333333341405
   0.964342751521009   0.035646468864024   0.583333333341405
   0.297676084854342   0.368979802197357   0.583333333341405
   0.631009418187675   0.368979802197357   0.583333333341405
   0.964342751521009   0.368979802197357   0.583333333341405
   0.297676084854342   0.702313135530690   0.583333333341405
   0.631009418187675   0.702313135530690   0.583333333341405
   0.964342751521009   0.702313135530690   0.583333333341405
   0.297676084854342   0.035646468864024   0.916666666674738
   0.631009418187675   0.035646468864024   0.916666666674738
   0.964342751521009   0.035646468864024   0.916666666674738
   0.297676084854342   0.368979802197357   0.916666666674738
   0.631009418187675   0.368979802197357   0.916666666674738
   0.964342751521009   0.368979802197357   0.916666666674738
   0.297676084854342   0.702313135530690   0.916666666674738
   0.631009418187675   0.702313135530690   0.916666666674738
   0.964342751521009   0.702313135530690   0.916666666674738
   0.302487086968428   0.129165824268790   0.083333333328028
   0.635820420301762   0.129165824268790   0.083333333328028
   0.969153753635095   0.129165824268790   0.083333333328028
   0.302487086968428   0.462499157602123   0.083333333328028
   0.635820420301762   0.462499157602123   0.083333333328028
   0.969153753635095   0.462499157602123   0.083333333328028
   0.302487086968428   0.795832490935457   0.083333333328028
   0.635820420301762   0.795832490935457   0.083333333328028
   0.969153753635095   0.795832490935457   0.083333333328028
   0.302487086968428   0.129165824268790   0.416666666661361
   0.635820420301762   0.129165824268790   0.416666666661361
   0.969153753635095   0.129165824268790   0.416666666661361
   0.302487086968428   0.462499157602123   0.416666666661361
   0.635820420301762   0.462499157602123   0.416666666661361
   0.969153753635095   0.462499157602123   0.416666666661361
   0.302487086968428   0.795832490935457   0.416666666661361
   0.635820420301762   0.795832490935457   0.416666666661361
   0.969153753635095   0.795832490935457   0.416666666661361
   0.302487086968428   0.129165824268790   0.749999999994695
   0.635820420301762   0.129165824268790   0.749999999994695
   0.969153753635095   0.129165824268790   0.749999999994695
   0.302487086968428   0.462499157602123   0.749999999994695
   0.635820420301762   0.462499157602123   0.749999999994695
   0.969153753635095   0.462499157602123   0.749999999994695
   0.302487086968428   0.795832490935457   0.749999999994695
   0.635820420301762   0.795832490935457   0.749999999994695
   0.969153753635095   0.795832490935457   0.749999999994695
   0.030846245533427   0.204167507918011   0.250000000007805
   0.364179578866760   0.204167507918011   0.250000000007805
   0.697512912200093   0.204167507918011   0.250000000007805
   0.030846245533427   0.537500841251344   0.250000000007805
   0.364179578866760   0.537500841251344   0.250000000007805
   0.697512912200093   0.537500841251344   0.250000000007805
   0.030846245533427   0.870834174584677   0.250000000007805
   0.364179578866760   0.870834174584677   0.250000000007805
   0.697512912200093   0.870834174584677   0.250000000007805
   0.030846245533427   0.204167507918011   0.583333333341138
   0.364179578866760   0.204167507918011   0.583333333341138
   0.697512912200093   0.204167507918011   0.583333333341138
   0.030846245533427   0.537500841251344   0.583333333341138
   0.364179578866760   0.537500841251344   0.583333333341138
   0.697512912200093   0.537500841251344   0.583333333341138
   0.030846245533427   0.870834174584677   0.583333333341138
   0.364179578866760   0.870834174584677   0.583333333341138
   0.697512912200093   0.870834174584677   0.583333333341138
   0.030846245533427   0.204167507918011   0.916666666674472
   0.364179578866760   0.204167507918011   0.916666666674472
   0.697512912200093   0.204167507918011   0.916666666674472
   0.030846245533427   0.537500841251344   0.916666666674472
   0.364179578866760   0.537500841251344   0.916666666674472
   0.697512912200093   0.537500841251344   0.916666666674472
   0.030846245533427   0.870834174584677   0.916666666674472
   0.364179578866760   0.870834174584677   0.916666666674472
   0.697512912200093   0.870834174584677   0.916666666674472
   0.131141231972090   0.194052148917784   0.083333333338683
   0.464474565305424   0.194052148917784   0.083333333338683
   0.797807898638757   0.194052148917784   0.083333333338683
   0.131141231972090   0.527385482251117   0.083333333338683
   0.464474565305424   0.527385482251117   0.083333333338683
   0.797807898638757   0.527385482251117   0.083333333338683
   0.131141231972090   0.860718815584451   0.083333333338683
   0.464474565305424   0.860718815584451   0.083333333338683
   0.797807898638757   0.860718815584451   0.083333333338683
   0.131141231972090   0.194052148917784   0.416666666672017
   0.464474565305424   0.194052148917784   0.416666666672017
   0.797807898638757   0.194052148917784   0.416666666672017
   0.131141231972090   0.527385482251117   0.416666666672017
   0.464474565305424   0.527385482251117   0.416666666672017
   0.797807898638757   0.527385482251117   0.416666666672017
   0.131141231972090   0.860718815584451   0.416666666672017
   0.464474565305424   0.860718815584451   0.416666666672017
   0.797807898638757   0.860718815584451   0.416666666672017
   0.131141231972090   0.194052148917784   0.750000000005350
   0.464474565305424   0.194052148917784   0.750000000005350
   0.797807898638757   0.194052148917784   0.750000000005350
   0.131141231972090   0.527385482251117   0.750000000005350
   0.464474565305424   0.527385482251117   0.750000000005350
   0.797807898638757   0.527385482251117   0.750000000005350
   0.131141231972090   0.860718815584451   0.750000000005350
   0.464474565305424   0.860718815584451   0.750000000005350
   0.797807898638757   0.860718815584451   0.750000000005350
   0.202192102014200   0.139281184708561   0.249999999964318
   0.535525435347533   0.139281184708561   0.249999999964318
   0.868858768680866   0.139281184708561   0.249999999964318
   0.202192102014200   0.472614518041895   0.249999999964318
   0.535525435347533   0.472614518041895   0.249999999964318
   0.868858768680866   0.472614518041895   0.249999999964318
   0.202192102014200   0.805947851375228   0.249999999964318
   0.535525435347533   0.805947851375228   0.249999999964318
   0.868858768680866   0.805947851375228   0.249999999964318
   0.202192102014200   0.139281184708561   0.583333333297651
   0.535525435347533   0.139281184708561   0.583333333297651
   0.868858768680866   0.139281184708561   0.583333333297651
   0.202192102014200   0.472614518041895   0.583333333297651
   0.535525435347533   0.472614518041895   0.583333333297651
   0.868858768680866   0.472614518041895   0.583333333297651
   0.202192102014200   0.805947851375228   0.583333333297651
   0.535525435347533   0.805947851375228   0.583333333297651
   0.868858768680866   0.805947851375228   0.583333333297651
   0.202192102014200   0.139281184708561   0.916666666630984
   0.535525435347533   0.139281184708561   0.916666666630984
   0.868858768680866   0.139281184708561   0.916666666630984
   0.202192102014200   0.472614518041895   0.916666666630984
   0.535525435347533   0.472614518041895   0.916666666630984
   0.868858768680866   0.472614518041895   0.916666666630984
   0.202192102014200   0.805947851375228   0.916666666630984
   0.535525435347533   0.805947851375228   0.916666666630984
   0.868858768680866   0.805947851375228   0.916666666630984
   0.198466531642597   0.034216601081655   0.083333333318126