super cell
        1.0000000000
  18.843892544496633  -0.000174317462526   0.000304221044840
  -0.000108056087590  11.567945438249517   0.000005965753075
   0.000182611631160   0.000006049763113  11.269524552491756
   48   96   96
 Direct
   0.074764617622788   0.499998264561914   0.333332159111160
   0.574764617622788   0.499998264561914   0.333332159111160
   0.074764617622788   0.999998264561914   0.333332159111160
   0.574764617622788   0.999998264561914   0.333332159111160
   0.074764617622788   0.499998264561914   0.666665492444494
   0.574764617622788   0.499998264561914   0.666665492444494
   0.074764617622788   0.999998264561914   0.666665492444494
   0.574764617622788   0.999998264561914   0.666665492444494
   0.074764617622788   0.499998264561914   0.999998825777827
   0.574764617622788   0.499998264561914   0.999998825777827
   0.074764617622788   0.999998264561914   0.999998825777827
   0.574764617622788   0.999998264561914   0.999998825777827
   0.425235128625634   0.000001720078236   0.000001603610132
   0.925235128625634   0.000001720078236   0.000001603610132
   0.425235128625634   0.500001720078236   0.000001603610132
   0.925235128625634   0.500001720078236   0.000001603610132
   0.425235128625634   0.000001720078236   0.333334936943465
   0.925235128625634   0.000001720078236   0.333334936943465
   0.425235128625634   0.500001720078236   0.333334936943465
   0.925235128625634   0.500001720078236   0.333334936943465
   0.425235128625634   0.000001720078236   0.666668270276799
   0.925235128625634   0.000001720078236   0.666668270276799
   0.425235128625634   0.500001720078236   0.666668270276799
   0.925235128625634   0.500001720078236   0.666668270276799
   0.324766004628330   0.250007389899368   0.166659289891778
   0.824766004628330   0.250007389899368   0.166659289891778
   0.324766004628330   0.750007389899368   0.166659289891778
   0.824766004628330   0.750007389899368   0.166659289891778
   0.324766004628330   0.250007389899368   0.499992623225112
   0.824766004628330   0.250007389899368   0.499992623225112
   0.324766004628330   0.750007389899368   0.499992623225112
   0.824766004628330   0.750007389899368   0.499992623225112
   0.324766004628330   0.250007389899368   0.833325956558445
   0.824766004628330   0.250007389899368   0.833325956558445
   0.324766004628330   0.750007389899368   0.833325956558445
   0.824766004628330   0.750007389899368   0.833325956558445
   0.175236389425468   0.249993829972687   0.166673697585636
   0.675236389425468   0.249993829972687   0.166673697585636
   0.175236389425468   0.749993829972687   0.166673697585636
   0.675236389425468   0.749993829972687   0.166673697585636
   0.175236389425468   0.249993829972687   0.500007030918969
   0.675236389425468   0.249993829972687   0.500007030918969
   0.175236389425468   0.749993829972687   0.500007030918969
   0.675236389425468   0.749993829972687   0.500007030918969
   0.175236389425468   0.249993829972687   0.833340364252303
   0.675236389425468   0.249993829972687   0.833340364252303
   0.175236389425468   0.749993829972687   0.833340364252303
   0.675236389425468   0.749993829972687   0.833340364252303
   0.037115559010714   0.090546284411872   0.041019654312212
   0.537115559010714   0.090546284411872   0.041019654312212
   0.037115559010714   0.590546284411872   0.041019654312212
   0.537115559010714   0.590546284411872   0.041019654312212
   0.037115559010714   0.090546284411872   0.374352987645545
   0.537115559010714   0.090546284411872   0.374352987645545
   0.037115559010714   0.590546284411872   0.374352987645545
   0.537115559010714   0.590546284411872   0.374352987645545
   0.037115559010714   0.090546284411872   0.707686320978878
   0.537115559010714   0.090546284411872   0.707686320978878
   0.037115559010714   0.590546284411872   0.707686320978878
   0.537115559010714   0.590546284411872   0.707686320978878
   0.037112680721247   0.409451165064277   0.292312718181631
   0.537112680721247   0.409451165064277   0.292312718181631
   0.037112680721247   0.909451165064277   0.292312718181631
   0.537112680721247   0.909451165064277   0.292312718181631
   0.037112680721247   0.409451165064277   0.625646051514964
   0.537112680721247   0.409451165064277   0.625646051514964
   0.037112680721247   0.909451165064277   0.625646051514964
   0.537112680721247   0.909451165064277   0.625646051514964
   0.037112680721247   0.409451165064277   0.958979384848297
   0.537112680721247   0.409451165064277   0.958979384848297
   0.037112680721247   0.909451165064277   0.958979384848297
   0.537112680721247   0.909451165064277   0.958979384848297
   0.462887037015697   0.090549568513898   0.041021891072727
   0.962887037015697   0.090549568513898   0.041021891072727
   0.462887037015697   0.590549568513898   0.041021891072727
   0.962887037015697   0.590549568513898   0.041021891072727
   0.462887037015697   0.090549568513898   0.374355224406061
   0.962887037015697   0.090549568513898   0.374355224406061
   0.462887037015697   0.590549568513898   0.374355224406061
   0.962887037015697   0.590549568513898   0.374355224406061
   0.462887037015697   0.090549568513898   0.707688557739394
   0.962887037015697   0.090549568513898   0.707688557739394
   0.462887037015697   0.590549568513898   0.707688557739394
   0.962887037015697   0.590549568513898   0.707688557739394
   0.462884080766919   0.409452399188000   0.292314103168003
   0.962884080766919   0.409452399188000   0.292314103168003
   0.462884080766919   0.909452399188000   0.292314103168003
   0.962884080766919   0.909452399188000   0.292314103168003
   0.462884080766919   0.409452399188000   0.625647436501336
   0.962884080766919   0.409452399188000   0.625647436501336
   0.462884080766919   0.909452399188000   0.625647436501336
   0.962884080766919   0.909452399188000   0.625647436501336
   0.462884080766919   0.409452399188000   0.958980769834669
   0.962884080766919   0.409452399188000   0.958980769834669
   0.462884080766919   0.909452399188000   0.958980769834669
   0.962884080766919   0.909452399188000   0.958980769834669
   0.287117976029701   0.159455589071852   0.207683851552470
   0.787117976029701   0.159455589071852   0.207683851552470
   0.287117976029701   0.659455589071852   0.207683851552470
   0.787117976029701   0.659455589071852   0.207683851552470
   0.287117976029701   0.159455589071852   0.541017184885804
   0.787117976029701   0.159455589071852   0.541017184885804
   0.287117976029701   0.659455589071852   0.541017184885804
   0.787117976029701   0.659455589071852   0.541017184885804
   0.287117976029701   0.159455589071852   0.874350518219137
   0.787117976029701   0.159455589071852   0.874350518219137
   0.287117976029701   0.659455589071852   0.874350518219137
   0.787117976029701   0.659455589071852   0.874350518219137
   0.212889317653651   0.159449344815841   0.207690745299932
   0.712889317653651   0.159449344815841   0.207690745299932
   0.212889317653651   0.659449344815841   0.207690745299932
   0.712889317653651   0.659449344815841   0.207690745299932
   0.212889317653651   0.159449344815841   0.541024078633265
   0.712889317653651   0.159449344815841   0.541024078633265
   0.212889317653651   0.659449344815841   0.541024078633265
   0.712889317653651   0.659449344815841   0.541024078633265
   0.212889317653651   0.159449344815841   0.874357411966599
   0.712889317653651   0.159449344815841   0.874357411966599
   0.212889317653651   0.659449344815841   0.874357411966599
   0.712889317653651   0.659449344815841   0.874357411966599
   0.212884451696663   0.340545621877361   0.125649293391033
   0.712884451696663   0.340545621877361   0.125649293391033
   0.212884451696663   0.840545621877361   0.125649293391033
   0.712884451696663   0.840545621877361   0.125649293391033
   0.212884451696663   0.340545621877361   0.458982626724366
   0.712884451696663   0.340545621877361   0.458982626724366
   0.212884451696663   0.840545621877361   0.458982626724366
   0.712884451696663   0.840545621877361   0.458982626724366
   0.212884451696663   0.340545621877361   0.792315960057699
   0.712884451696663   0.340545621877361   0.792315960057699
   0.212884451696663   0.840545621877361   0.792315960057699
   0.712884451696663   0.840545621877361   0.792315960057699
   0.287113066665533   0.340551661997678   0.125642532041395
   0.787113066665533   0.340551661997678   0.125642532041395
   0.287113066665533   0.840551661997678   0.125642532041395
   0.787113066665533   0.840551661997678   0.125642532041395
   0.287113066665533   0.340551661997678   0.458975865374728
   0.787113066665533   0.340551661997678   0.458975865374728
   0.287113066665533   0.840551661997678   0.458975865374728
   0.787113066665533   0.840551661997678   0.458975865374728
   0.287113066665533   0.340551661997678   0.792309198708061
   0.787113066665533   0.340551661997678   0.792309198708061
   0.287113066665533   0.840551661997678   0.792309198708061
   0.787113066665533   0.840551661997678   0.792309198708061
   0.067082685597583   0.163517815537391   0.075194898830664
   0.567082685597583   0.163517815537391   0.075194898830664
   0.067082685597583   0.663517815537391   0.075194898830664
   0.567082685597583   0.663517815537391   0.075194898830664
   0.067082685597583   0.163517815537391   0.408528232163997
   0.567082685597583   0.163517815537391   0.408528232163997
   0.067082685597583   0.663517815537391   0.408528232163997
   0.567082685597583   0.663517815537391   0.408528232163997
   0.067082685597583   0.163517815537391   0.741861565497330
   0.567082685597583   0.163517815537391   0.741861565497330
   0.067082685597583   0.663517815537391   0.741861565497330
   0.567082685597583   0.663517815537391   0.741861565497330
   0.067077587443905   0.336478059843075   0.258137163597709
   0.567077587443905   0.336478059843075   0.258137163597709
   0.067077587443905   0.836478059843075   0.258137163597709
   0.567077587443905   0.836478059843075   0.258137163597709
   0.067077587443905   0.336478059843075   0.591470496931043
   0.567077587443905   0.336478059843075   0.591470496931043
   0.067077587443905   0.836478059843075   0.591470496931043
   0.567077587443905   0.836478059843075   0.591470496931043
   0.067077587443905   0.336478059843075   0.924803830264376
   0.567077587443905   0.336478059843075   0.924803830264376
   0.067077587443905   0.836478059843075   0.924803830264376
   0.567077587443905   0.836478059843075   0.924803830264376
   0.432922336777691   0.163520977259723   0.075197515805594
   0.932922336777691   0.163520977259723   0.075197515805594
   0.432922336777691   0.663520977259723   0.075197515805594
   0.932922336777691   0.663520977259723   0.075197515805594
   0.432922336777691   0.163520977259723   0.408530849138928
   0.932922336777691   0.163520977259723   0.408530849138928
   0.432922336777691   0.663520977259723   0.408530849138928
   0.932922336777691   0.663520977259723   0.408530849138928
   0.432922336777691   0.163520977259723   0.741864182472261
   0.932922336777691   0.163520977259723   0.741864182472261
   0.432922336777691   0.663520977259723   0.741864182472261
   0.932922336777691   0.663520977259723   0.741864182472261
   0.432917131819568   0.336482107070320   0.258140401426461
   0.932917131819568   0.336482107070320   0.258140401426461
   0.432917131819568   0.836482107070320   0.258140401426461
   0.932917131819568   0.836482107070320   0.258140401426461
   0.432917131819568   0.336482107070320   0.591473734759794
   0.932917131819568   0.336482107070320   0.591473734759794
   0.432917131819568   0.836482107070320   0.591473734759794
   0.932917131819568   0.836482107070320   0.591473734759794
   0.432917131819568   0.336482107070320   0.924807068093127
   0.932917131819568   0.336482107070320   0.924807068093127
   0.432917131819568   0.836482107070320   0.924807068093127
   0.932917131819568   0.836482107070320   0.924807068093127
   0.317085788877856   0.086486780509310   0.241856514519116
   0.817085788877856   0.086486780509310   0.241856514519116
   0.317085788877856   0.586486780509310   0.241856514519116
   0.817085788877856   0.586486780509310   0.241856514519116
   0.317085788877856   0.086486780509310   0.575189847852449
   0.817085788877856   0.086486780509310   0.575189847852449
   0.317085788877856   0.586486780509310   0.575189847852449
   0.817085788877856   0.586486780509310   0.575189847852449
   0.317085788877856   0.086486780509310   0.908523181185782
   0.817085788877856   0.086486780509310   0.908523181185782
   0.317085788877856   0.586486780509310   0.908523181185782
   0.817085788877856   0.586486780509310   0.908523181185782
   0.182925540280858   0.086475362872539   0.241868915676192
   0.682925540280858   0.086475362872539   0.241868915676192
   0.182925540280858   0.586475362872539   0.241868915676192
   0.682925540280858   0.586475362872539   0.241868915676192
   0.182925540280858   0.086475362872539   0.575202249009525
   0.682925540280858   0.086475362872539   0.575202249009525
   0.182925540280858   0.586475362872539   0.575202249009525
   0.682925540280858   0.586475362872539   0.575202249009525
   0.182925540280858   0.086475362872539   0.908535582342859
   0.682925540280858   0.086475362872539   0.908535582342859
   0.182925540280858   0.586475362872539   0.908535582342859
   0.682925540280858   0.586475362872539   0.908535582342859
   0.182916594074059   0.413514555638023   0.091477078815338
   0.682916594074059   0.413514555638023   0.091477078815338
   0.182916594074059   0.913514555638023   0.091477078815338
   0.682916594074059   0.913514555638023   0.091477078815338
   0.182916594074059   0.413514555638023   0.424810412148672
   0.682916594074059   0.413514555638023   0.424810412148672
   0.182916594074059   0.913514555638023   0.424810412148672
   0.682916594074059   0.913514555638023   0.424810412148672
   0.182916594074059   0.413514555638023   0.758143745482005
   0.682916594074059   0.413514555638023   0.758143745482005
   0.182916594074059   0.913514555638023   0.758143745482005
   0.682916594074059   0.913514555638023   0.758143745482005
   0.317077110140881   0.413525974918900   0.091464700489599
   0.817077110140881   0.413525974918900   0.091464700489599
   0.317077110140881   0.913525974918900   0.091464700489599
   0.817077110140881   0.913525974918900   0.091464700489599
   0.317077110140881   0.413525974918900   0.424798033822932
   0.817077110140881   0.413525974918900   0.424798033822932
   0.317077110140881   0.913525974918900   0.424798033822932
   0.817077110140881   0.913525974918900   0.424798033822932
   0.317077110140881   0.413525974918900   0.758131367156266
   0.817077110140881   0.413525974918900   0.758131367156266
   0.317077110140881   0.913525974918900   0.758131367156266
   0.817077110140881   0.913525974918900   0.758131367156266
