 H  C  O                                
   1.0000000000000000     
    25.0000000000000000    0.0000000000000000    0.0000000000000000
     0.0000000000000000   25.0000000000000000    0.0000000000000000
     0.0000000000000000    0.0000000000000000   25.0000000000000000
   H    C    O 
     6     4     4
Direct
  0.3565713475976295  0.4201059576979418  0.2821316536518452
  0.3034523901066351  0.1799441744508030  0.3593120108299885
  0.2878106084248486  0.2530106940865622  0.2428342995251569
  0.2227186897637097  0.2544773205512527  0.2690007851688563
  0.2435955145075681  0.3454321821950899  0.2386754597337841
  0.2421805682349714  0.3469434894808714  0.3088148169636256
  0.2634307535549283  0.2693150294757274  0.2751408987177939
  0.2637723625197097  0.3306376258117183  0.2745828296109920
  0.3201741896332635  0.3535040035915671  0.2745451490578006
  0.2833956076432145  0.2465043517277792  0.3279164335039653
  0.3610736613130570  0.3285643396500362  0.2669443768721038
  0.3194754143023246  0.4079308497954131  0.2832491868398606
  0.2907457336433126  0.2714782339648494  0.3688384944932110
  0.2913447587548106  0.1920837475204138  0.3238952050310168

  0.00000000E+00  0.00000000E+00  0.00000000E+00
  0.00000000E+00  0.00000000E+00  0.00000000E+00
  0.00000000E+00  0.00000000E+00  0.00000000E+00
  0.00000000E+00  0.00000000E+00  0.00000000E+00
  0.00000000E+00  0.00000000E+00  0.00000000E+00
  0.00000000E+00  0.00000000E+00  0.00000000E+00
  0.00000000E+00  0.00000000E+00  0.00000000E+00
  0.00000000E+00  0.00000000E+00  0.00000000E+00
  0.00000000E+00  0.00000000E+00  0.00000000E+00
  0.00000000E+00  0.00000000E+00  0.00000000E+00
  0.00000000E+00  0.00000000E+00  0.00000000E+00
  0.00000000E+00  0.00000000E+00  0.00000000E+00
  0.00000000E+00  0.00000000E+00  0.00000000E+00
  0.00000000E+00  0.00000000E+00  0.00000000E+00
