ISMEAR=0
SIGMA=0.01
   
PREC   = Accurate
EDIFF  = 1E-8
ENCUT=1000

Ionic Relaxation
ISIF   =   2
IBRION = 6
POTIM = 0.008
NFREE = 2
EDIFF=10-7


 
#vdW
GGA = ML    #stands for rPW86
LUSE_VDW = .TRUE.
Zab_vdW = -1.8867
AGGAC = 0.0000
LASPH = .TRUE.

SYMPREC=1E-7


ALGO=Conjugate


LWAVE=.FALSE.
LCHARG=.FALSE.
