 C  O  H 
 1.0000000000000000
    22.0000000000000000    0.0000000000000000    0.0000000000000000
     0.0000000000000000   22.0000000000000000    0.0000000000000000
     0.0000000000000000    0.0000000000000000   22.0000000000000000
 C   O   H  
   2   2   4
Cartesian
  5.4476109643350430  7.0496431497747301  6.9995253395314352
  6.9602007547807316  7.0438601902160576  7.0002133341880182
  7.6844616314203957  8.0155173091943759  7.0002523471282529
  7.4529498160885819  5.7505017043193067  7.0008223646616203
  5.0872872161014504  8.0741211699107911  6.9990565302395344
  5.0751676094269591  6.5216520017823241  6.1201983440639740
  5.0743697082873460  6.5221761312666358  7.8788285744964526
  8.4267922995593558  5.8210883435357808  7.0012431656906609
